 vasp.6.1.2 22Jul20 (build Apr 14 2021 21:39:43) complex

 executed on             LinuxIFC date 2022.07.09  08:06:52

 INCAR:
 POTCAR:    PAW_PBE Zn 06Sep2000
 POTCAR:    PAW_PBE Ca_sv 06Sep2000
 POTCAR:    PAW_PBE N 08Apr2002
 POTCAR:    PAW_PBE Zn 06Sep2000
   VRHFIN =Zn: d10 p2

   TITEL  = PAW_PBE Zn 06Sep2000
   POMASS =   65.390; ZVAL   =   12.000    mass and valenz
   ENMAX  =  276.723; ENMIN  =  207.542 eV

   TITEL  = PAW_PBE Ca_sv 06Sep2000
   POMASS =   40.078; ZVAL   =   10.000    mass and valenz
   ENMAX  =  266.622; ENMIN  =  199.967 eV

   TITEL  = PAW_PBE N 08Apr2002
   POMASS =   14.001; ZVAL   =    5.000    mass and valenz
   ENMAX  =  400.000; ENMIN  =  300.000 eV

  PAW_PBE Zn 06Sep2000                  :
  PAW_PBE Ca_sv 06Sep2000               :
  PAW_PBE N 08Apr2002                   :

 POSCAR: generated by phonopy
  positions in direct lattice

 METAGGA = SCAN     LMAXTAU =  6    LMIXTAU =  F

 ion  position               nearest neighbor table
   1  1.000  0.000  0.000-   7 1.82   8 1.82
   2  0.500  0.500  0.500-  10 1.82   9 1.82
   3  0.999  1.000  0.337-   7 2.39
   4  0.000  0.000  0.662-   8 2.40
   5  0.500  0.500  0.838-   9 2.40
   6  0.500  0.500  0.162-  10 2.40
   7  1.000  0.000  0.146-   1 1.82   3 2.39
   8  1.000  0.000  0.854-   1 1.82   4 2.40
   9  0.500  0.500  0.646-   2 1.82   5 2.40
  10  0.500  0.500  0.354-   2 1.82   6 2.40

IMPORTANT INFORMATION: All symmetrisations will be switched off!
NOSYMM: (Re-)initialisation of all symmetry stuff for point group C_1.

                                     Primitive cell

  volume of cell :     159.5304

  direct lattice vectors                    reciprocal lattice vectors
     3.574043013  0.000000006 -0.000000042     0.279795178 -0.000000001  0.000000003
     0.000000007  3.574042987 -0.000000007    -0.000000001  0.279795180  0.000000001
    -0.000000145 -0.000000025 12.488892887     0.000000001  0.000000000  0.080071149

  length of vectors
     3.574043013  3.574042987 12.488892887     0.279795178  0.279795180  0.080071149

  position of ions in fractional coordinates (direct lattice)
     0.999999985  0.000000001  0.000000143
     0.499999986  0.499999998  0.499999908
     0.999230318  1.000000000  0.336797861
     0.000000119  0.000000013  0.662432335
     0.500000146  0.500000005  0.837567650
     0.500000111  0.499999986  0.162432349
     0.999999854  0.000000019  0.145775347
     0.999999906  0.000000003  0.854224458
     0.499999894  0.499999999  0.645775510
     0.499999872  0.499999976  0.354224629

  ion indices of the primitive-cell ions
   primitive index   ion index
                 1           1
                 2           2
                 3           3
                 4           4
                 5           5
                 6           6
                 7           7
                 8           8
                 9           9
                10          10

 KPOINTS: Kpoints

Automatic generation of k-mesh.
 generate k-points for:    9    9    3
Space group operators:
 irot       det(A)        alpha          n_x          n_y          n_z        tau_x        tau_y        tau_z
    1     1.000000     0.000000     1.000000     0.000000     0.000000     0.000000     0.000000     0.000000

 Subroutine IBZKPT returns following result:

 Found    122 irreducible k-points:

 Following reciprocal coordinates:
            Coordinates               Weight
  0.000000  0.000000  0.000000      1.000000
  0.111111  0.000000 -0.000000      2.000000
 -0.000000  0.111111  0.000000      2.000000
  0.222222  0.000000 -0.000000      2.000000
 -0.000000  0.222222  0.000000      2.000000
  0.333333  0.000000  0.000000      2.000000
 -0.000000  0.333333  0.000000      2.000000
  0.444444  0.000000  0.000000      2.000000
 -0.000000  0.444444  0.000000      2.000000
  0.111111  0.111111 -0.000000      2.000000
 -0.111111  0.111111  0.000000      2.000000
  0.222222  0.111111 -0.000000      2.000000
 -0.111111  0.222222  0.000000      2.000000
 -0.222222  0.111111  0.000000      2.000000
  0.111111  0.222222 -0.000000      2.000000
  0.333333  0.111111  0.000000      2.000000
 -0.111111  0.333333  0.000000      2.000000
 -0.333333  0.111111 -0.000000      2.000000
  0.111111  0.333333 -0.000000      2.000000
  0.444444  0.111111  0.000000      2.000000
 -0.111111  0.444444  0.000000      2.000000
 -0.444444  0.111111 -0.000000      2.000000
  0.111111  0.444444 -0.000000      2.000000
  0.222222  0.222222 -0.000000      2.000000
 -0.222222  0.222222  0.000000      2.000000
  0.333333  0.222222  0.000000      2.000000
 -0.222222  0.333333  0.000000      2.000000
 -0.333333  0.222222 -0.000000      2.000000
  0.222222  0.333333 -0.000000      2.000000
  0.444444  0.222222  0.000000      2.000000
 -0.222222  0.444444  0.000000      2.000000
 -0.444444  0.222222 -0.000000      2.000000
  0.222222  0.444444 -0.000000      2.000000
  0.333333  0.333333  0.000000      2.000000
 -0.333333  0.333333 -0.000000      2.000000
  0.444444  0.333333  0.000000      2.000000
 -0.333333  0.444444 -0.000000      2.000000
 -0.444444  0.333333 -0.000000      2.000000
  0.333333  0.444444  0.000000      2.000000
  0.444444  0.444444  0.000000      2.000000
 -0.444444  0.444444  0.000000      2.000000
  0.000000 -0.000000  0.333333      2.000000
  0.111111  0.000000  0.333333      2.000000
  0.000000  0.111111  0.333333      2.000000
 -0.111111 -0.000000  0.333333      2.000000
  0.000000 -0.111111  0.333333      2.000000
  0.222222  0.000000  0.333333      2.000000
 -0.000000  0.222222  0.333333      2.000000
 -0.222222 -0.000000  0.333333      2.000000
  0.000000 -0.222222  0.333333      2.000000
  0.333333  0.000000  0.333333      2.000000
 -0.000000  0.333333  0.333333      2.000000
 -0.333333 -0.000000  0.333333      2.000000
  0.000000 -0.333333  0.333333      2.000000
  0.444444  0.000000  0.333333      2.000000
 -0.000000  0.444444  0.333333      2.000000
 -0.444444 -0.000000  0.333333      2.000000
  0.000000 -0.444444  0.333333      2.000000
  0.111111  0.111111  0.333333      2.000000
 -0.111111  0.111111  0.333333      2.000000
[...]
 -0.333333  0.333333  0.333333      2.000000
 -0.333333 -0.333333  0.333333      2.000000
  0.333333 -0.333333  0.333333      2.000000
  0.444444  0.333333  0.333333      2.000000
 -0.333333  0.444444  0.333333      2.000000
 -0.444444 -0.333333  0.333333      2.000000
  0.333333 -0.444444  0.333333      2.000000
 -0.444444  0.333333 -0.333333      2.000000
  0.333333  0.444444 -0.333333      2.000000
  0.444444 -0.333333 -0.333333      2.000000
 -0.333333 -0.444444 -0.333333      2.000000
  0.444444  0.444444  0.333333      2.000000
 -0.444444  0.444444  0.333333      2.000000
 -0.444444 -0.444444  0.333333      2.000000
  0.444444 -0.444444  0.333333      2.000000

 Following cartesian coordinates:
            Coordinates               Weight
  0.000000  0.000000  0.000000      1.000000
  0.031088 -0.000000  0.000000      2.000000
 -0.000000  0.031088  0.000000      2.000000
  0.062177 -0.000000  0.000000      2.000000
 -0.000000  0.062177  0.000000      2.000000
  0.093265 -0.000000  0.000000      2.000000
 -0.000000  0.093265  0.000000      2.000000
  0.124353 -0.000000  0.000000      2.000000
 -0.000000  0.124353  0.000000      2.000000
  0.031088  0.031088  0.000000      2.000000
 -0.031088  0.031088 -0.000000      2.000000
  0.062177  0.031088  0.000000      2.000000
 -0.031088  0.062177 -0.000000      2.000000
 -0.062177  0.031088 -0.000000      2.000000
  0.031088  0.062177  0.000000      2.000000
  0.093265  0.031088  0.000000      2.000000
 -0.031088  0.093265 -0.000000      2.000000
 -0.093265  0.031088 -0.000000      2.000000
  0.031088  0.093265  0.000000      2.000000
  0.124353  0.031088  0.000000      2.000000
 -0.031088  0.124353 -0.000000      2.000000
 -0.124353  0.031088 -0.000000      2.000000
  0.031088  0.124353  0.000000      2.000000
  0.062177  0.062177  0.000000      2.000000
 -0.062177  0.062177 -0.000000      2.000000
  0.093265  0.062177  0.000000      2.000000
 -0.062177  0.093265 -0.000000      2.000000
 -0.093265  0.062177 -0.000000      2.000000
  0.062177  0.093265  0.000000      2.000000
  0.124353  0.062177  0.000000      2.000000
 -0.062177  0.124353 -0.000000      2.000000
 -0.124353  0.062177 -0.000000      2.000000
  0.062177  0.124353  0.000000      2.000000
  0.093265  0.093265  0.000000      2.000000
 -0.093265  0.093265 -0.000000      2.000000
  0.124353  0.093265  0.000000      2.000000
 -0.093265  0.124353 -0.000000      2.000000
 -0.124353  0.093265 -0.000000      2.000000
  0.093265  0.124353  0.000000      2.000000
  0.124353  0.124353  0.000000      2.000000
 -0.124353  0.124353 -0.000000      2.000000
  0.000000  0.000000  0.026690      2.000000
  0.031088 -0.000000  0.026690      2.000000
  0.000000  0.031088  0.026690      2.000000
 -0.031088  0.000000  0.026690      2.000000
  0.000000 -0.031088  0.026690      2.000000
  0.062177 -0.000000  0.026690      2.000000
  0.000000  0.062177  0.026690      2.000000
 -0.062177  0.000000  0.026690      2.000000
  0.000000 -0.062177  0.026690      2.000000
  0.093265 -0.000000  0.026690      2.000000
  0.000000  0.093265  0.026690      2.000000
 -0.093265  0.000000  0.026690      2.000000
  0.000000 -0.093265  0.026690      2.000000
  0.124353 -0.000000  0.026690      2.000000
  0.000000  0.124353  0.026690      2.000000
 -0.124353  0.000000  0.026690      2.000000
  0.000000 -0.124353  0.026690      2.000000
  0.031088  0.031088  0.026690      2.000000
 -0.031088  0.031088  0.026690      2.000000
[...]
 -0.093265  0.093265  0.026690      2.000000
 -0.093265 -0.093265  0.026690      2.000000
  0.093265 -0.093265  0.026690      2.000000
  0.124353  0.093265  0.026690      2.000000
 -0.093265  0.124353  0.026690      2.000000
 -0.124353 -0.093265  0.026690      2.000000
  0.093265 -0.124353  0.026690      2.000000
 -0.124353  0.093265 -0.026690      2.000000
  0.093265  0.124353 -0.026690      2.000000
  0.124353 -0.093265 -0.026690      2.000000
 -0.093265 -0.124353 -0.026690      2.000000
  0.124353  0.124353  0.026690      2.000000
 -0.124353  0.124353  0.026690      2.000000
 -0.124353 -0.124353  0.026690      2.000000
  0.124353 -0.124353  0.026690      2.000000

 SYSTEM =  unknown system
 POSCAR =  generated by phonopy

 Startparameter for this run:
   NWRITE =      2    write-flag & timer
   PREC   = accura    normal or accurate (medium, high low for compatibility)
   ISTART =      0    job   : 0-new  1-cont  2-samecut
   ICHARG =      2    charge: 1-file 2-atom 10-const
   ISPIN  =      2    spin polarized calculation?
   LNONCOLLINEAR =      F non collinear calculations
   LSORBIT =      F    spin-orbit coupling
   INIWAV =      1    electr: 0-lowe 1-rand  2-diag
   LASPH  =      T    aspherical Exc in radial PAW
   METAGGA=      F    non-selfconsistent MetaGGA calc.

 Electronic Relaxation 1
   ENCUT  =  520.0 eV  38.22 Ry    6.18 a.u.   6.65  6.65 23.22*2*pi/ulx,y,z
   ENINI  =  520.0     initial cutoff
   ENAUG  =  627.1 eV  augmentation charge cutoff
   NELM   =    200;   NELMIN=  6; NELMDL= -5     # of ELM steps
   EDIFF  = 0.1E-05   stopping-criterion for ELM
[...]
 k-point  45 :  -0.1111-0.0000 0.3333  plane waves:    4317
 k-point  46 :   0.0000-0.1111 0.3333  plane waves:    4317
 k-point  47 :   0.2222 0.0000 0.3333  plane waves:    4319
 k-point  48 :  -0.0000 0.2222 0.3333  plane waves:    4319
 k-point  49 :  -0.2222-0.0000 0.3333  plane waves:    4319
 k-point  50 :   0.0000-0.2222 0.3333  plane waves:    4319
 k-point  51 :   0.3333 0.0000 0.3333  plane waves:    4290
 k-point  52 :  -0.0000 0.3333 0.3333  plane waves:    4290
 k-point  53 :  -0.3333-0.0000 0.3333  plane waves:    4290
 k-point  54 :   0.0000-0.3333 0.3333  plane waves:    4290
 k-point  55 :   0.4444 0.0000 0.3333  plane waves:    4283
 k-point  56 :  -0.0000 0.4444 0.3333  plane waves:    4283
 k-point  57 :  -0.4444-0.0000 0.3333  plane waves:    4283
 k-point  58 :   0.0000-0.4444 0.3333  plane waves:    4283
 k-point  59 :   0.1111 0.1111 0.3333  plane waves:    4316
 k-point  60 :  -0.1111 0.1111 0.3333  plane waves:    4316
[...]
 k-point 108 :  -0.3333 0.3333 0.3333  plane waves:    4284
 k-point 109 :  -0.3333-0.3333 0.3333  plane waves:    4284
 k-point 110 :   0.3333-0.3333 0.3333  plane waves:    4284
 k-point 111 :   0.4444 0.3333 0.3333  plane waves:    4284
 k-point 112 :  -0.3333 0.4444 0.3333  plane waves:    4284
 k-point 113 :  -0.4444-0.3333 0.3333  plane waves:    4284
 k-point 114 :   0.3333-0.4444 0.3333  plane waves:    4284
 k-point 115 :  -0.4444 0.3333-0.3333  plane waves:    4284
 k-point 116 :   0.3333 0.4444-0.3333  plane waves:    4284
 k-point 117 :   0.4444-0.3333-0.3333  plane waves:    4284
 k-point 118 :  -0.3333-0.4444-0.3333  plane waves:    4284
 k-point 119 :   0.4444 0.4444 0.3333  plane waves:    4304
 k-point 120 :  -0.4444 0.4444 0.3333  plane waves:    4304
 k-point 121 :  -0.4444-0.4444 0.3333  plane waves:    4304
 k-point 122 :   0.4444-0.4444 0.3333  plane waves:    4304

 maximum and minimum number of plane-waves per node :      1095     1056

 maximum number of plane-waves:      4327
 maximum index in each direction:
   IXMAX=    7   IYMAX=    7   IZMAX=   23
   IXMIN=   -7   IYMIN=   -7   IZMIN=  -23

 parallel 3D FFT for wavefunctions:
    minimum data exchange during FFTs selected (reduces bandwidth)
 parallel 3D FFT for charge:
    minimum data exchange during FFTs selected (reduces bandwidth)

 Broyden mixing: mesh for mixing (old mesh)
   NGX = 13   NGY = 13   NGZ = 47
  (NGX  = 56   NGY  = 56   NGZ  =192)
  gives a total of   7943 points

 initial charge density was supplied:
 charge density of overlapping atoms calculated
 number of electron      84.0000000 magnetization       0.6000000
 keeping initial charge density in first step

 Maximum index for augmentation-charges          944 (set IRDMAX)

 First call to EWALD:  gamma=   0.327
 Maximum number of real-space cells 4x 4x 1
 Maximum number of reciprocal cells 2x 2x 6

--------------------------------------- Iteration      1(   1)  ---------------------------------------

 eigenvalue-minimisations  : 31232
 total energy-change (2. order) : 0.7502520E+03  (-0.4179467E+04)
 number of electron      84.0000000 magnetization       0.6000000
 augmentation part       84.0000000 magnetization       0.6000000

 Free energy of the ion-electron system (eV)
  alpha Z        PSCENC =       451.66503955
  Ewald energy   TEWEN  =     -5990.62060555
  -Hartree energ DENC   =     -2273.72445705
  -exchange      EXHF   =         0.00000000
  -V(xc)+E(xc)   XCENC  =       422.61695796
  PAW double counting   =      6649.44116713    -7029.34659928
  entropy T*S    EENTRO =        -0.00405899
  eigenvalues    EBANDS =       -59.93763395
  atomic energy  EATOM  =      8580.16218116
  Solvation  Ediel_sol  =         0.00000000
  free energy    TOTEN  =       750.25199098 eV

  energy without entropy =      750.25604997  energy(sigma->0) =      750.25402047

[...]

 eigenvalue-minimisations  : 32560
 total energy-change (2. order) :-0.8049236E+03  (-0.7682741E+03)
 number of electron      84.0000000 magnetization       0.6000000
 augmentation part       84.0000000 magnetization       0.6000000

[...]

 Broyden mixing:
  rms(total) = 0.20789E+01    rms(broyden)= 0.20786E+01
  rms(prec ) = 0.26685E+01
  weight for this iteration     100.00

[...]

 eigenvalues of (default mixing * dielectric matrix)
  average eigenvalue GAMMA=   0.8906
  0.8906

[...]

 eigenvalue-minimisations  : 36656
 total energy-change (2. order) : 0.2405286E-04  (-0.1350295E-04)
 number of electron      83.9999969 magnetization       0.0006500
 augmentation part       27.1644064 magnetization       0.0004352

[...]

 Broyden mixing:
  rms(total) = 0.40851E-04    rms(broyden)= 0.40847E-04
  rms(prec ) = 0.45433E-04
  weight for this iteration     100.00

 eigenvalues of (default mixing * dielectric matrix)
  average eigenvalue GAMMA=   1.3351
  3.0221  2.4453  2.4453  1.6801  1.3171  0.9145  0.9145  1.0209  0.8534  0.7730
  0.7167  0.6268  0.6268

[...]

--------------------------------------- Iteration      1(  19)  ---------------------------------------

 eigenvalue-minimisations  : 24112
 total energy-change (2. order) :-0.7466815E-06  (-0.4240152E-08)
 number of electron      83.9999969 magnetization       0.0000091
 augmentation part       27.1642117 magnetization      -0.0000118

 Free energy of the ion-electron system (eV)
  alpha Z        PSCENC =       451.66503955
  Ewald energy   TEWEN  =     -5990.62060555
  -Hartree energ DENC   =     -2270.49821620
  -exchange      EXHF   =         0.00000000
  -V(xc)+E(xc)   XCENC  =       431.61198784
  PAW double counting   =      7705.07340308    -8126.69938898
  entropy T*S    EENTRO =        -0.00000000
  eigenvalues    EBANDS =      -892.23623053
  atomic energy  EATOM  =      8580.16218116
  Solvation  Ediel_sol  =         0.00000000
  free energy    TOTEN  =      -111.54182963 eV

  energy without entropy =     -111.54182963  energy(sigma->0) =     -111.54182963

 average (electrostatic) potential at core
  the test charge radii are     0.9521  1.1137  0.7089
  (the norm of the test charge is              1.0000)
       1 -41.7721       2 -41.7467       3 -49.0319       4 -49.0447       5 -49.0541
       6 -49.0643       7 -66.9224       8 -66.9166       9 -66.8994      10 -66.8992

 E-fermi :   3.1918     XC(G=0): -10.7684     alpha+bet :-11.0991

 spin component 1

 k-point     1 :       0.0000    0.0000    0.0000
  band No.  band energies     occupation
      1     -38.1198      1.00000
      2     -38.1161      1.00000
      3     -38.0439      1.00000
      4     -38.0395      1.00000
      5     -18.5494      1.00000
      6     -18.5157      1.00000
      7     -18.3196      1.00000
      8     -18.2788      1.00000
      9     -18.1685      1.00000
     10     -18.1684      1.00000
     11     -18.1639      1.00000
     12     -18.1639      1.00000
     13     -18.0153      1.00000
     14     -18.0152      1.00000
     15     -18.0122      1.00000
     16     -18.0121      1.00000
     17     -11.3771      1.00000
     18     -11.1539      1.00000
     19     -10.6975      1.00000
     20     -10.4655      1.00000
     21      -4.4351      1.00000
     22      -4.3198      1.00000
     23      -4.3039      1.00000
     24      -4.3039      1.00000
     25      -4.2935      1.00000
     26      -4.2777      1.00000
     27      -4.2777      1.00000
     28      -4.2759      1.00000
     29      -4.1654      1.00000
     30      -4.1392      1.00000
     31      -1.9712      1.00000
     32      -1.7216      1.00000
     33       0.3918      1.00000
     34       0.8485      1.00000
     35       2.1416      1.00000
     36       2.1416      1.00000
     37       2.1650      1.00000
     38       2.1650      1.00000
     39       2.7987      1.00000
     40       2.7987      1.00000
     41       2.9208      1.00000
     42       2.9208      1.00000
     43       4.1437      0.00000
     44       5.6280      0.00000
     45       5.7688      0.00000
     46       5.9580      0.00000
     47       7.1930      0.00000
     48       7.3433      0.00000
     49       7.3433      0.00000
     50       7.5174      0.00000
     51       8.0637      0.00000
     52       8.4204      0.00000
     53       8.4227      0.00000
     54       8.4228      0.00000
     55       9.2608      0.00000
     56       9.2847      0.00000
     57       9.3133      0.00000
     58       9.3134      0.00000
     59       9.6036      0.00000
     60       9.8961      0.00000
     61       9.9931      0.00000
     62      10.1804      0.00000
     63      10.2124      0.00000
     64      10.6102      0.00000

[...]

 spin component 2

[...]

 k-point   122 :       0.4444   -0.4444    0.3333
  band No.  band energies     occupation
      1     -38.0626      1.00000
      2     -38.0520      1.00000
      3     -38.0424      1.00000
      4     -38.0311      1.00000
      5     -18.4305      1.00000
      6     -18.4223      1.00000
      7     -18.3883      1.00000
      8     -18.3837      1.00000
      9     -18.3833      1.00000
     10     -18.3700      1.00000
     11     -18.3328      1.00000
     12     -18.3214      1.00000
     13     -18.1567      1.00000
     14     -18.1552      1.00000
     15     -18.1537      1.00000
     16     -18.1515      1.00000
     17     -10.9914      1.00000
     18     -10.9683      1.00000
     19     -10.3205      1.00000
     20     -10.2982      1.00000
     21      -4.3995      1.00000
     22      -4.3962      1.00000
     23      -4.3735      1.00000
     24      -4.3703      1.00000
     25      -4.3098      1.00000
     26      -4.2838      1.00000
     27      -4.1140      1.00000
     28      -4.0900      1.00000
     29      -4.0890      1.00000
     30      -4.0631      1.00000
     31      -0.0754      1.00000
     32      -0.0065      1.00000
     33       0.5850      1.00000
     34       0.6114      1.00000
     35       0.6463      1.00000
     36       0.6841      1.00000
     37       1.0153      1.00000
     38       1.0315      1.00000
     39       1.6862      1.00000
     40       1.7553      1.00000
     41       1.8975      1.00000
     42       1.9612      1.00000
     43       4.6469      0.00000
     44       4.6730      0.00000
     45       5.3462      0.00000
     46       5.4270      0.00000
     47       6.7878      0.00000
     48       6.8097      0.00000
     49       7.5552      0.00000
     50       7.6544      0.00000
     51       8.6649      0.00000
     52       8.6977      0.00000
     53       9.3214      0.00000
     54       9.3774      0.00000
     55      10.1901      0.00000
     56      10.2682      0.00000
     57      10.3568      0.00000
     58      10.4199      0.00000
     59      10.6637      0.00000
     60      10.7662      0.00000
     61      10.8622      0.00000
     62      10.8714      0.00000
     63      10.9046      0.00000
     64      10.9834      0.00000

 soft charge-density along one line, spin component           1
         0         1         2         3         4         5         6         7         8         9
 total charge-density along one line

 soft charge-density along one line, spin component           2
         0         1         2         3         4         5         6         7         8         9
 total charge-density along one line

------------------------ aborting loop because EDIFF is reached ----------------------------------------

 total charge

# of ion       s       p       d       tot
    1        0.694   0.643   9.761  11.098
    2        0.694   0.642   9.761  11.097
    3        2.040   5.873   0.277   8.190
    4        2.040   5.872   0.275   8.188
    5        2.040   5.872   0.276   8.188
    6        2.040   5.872   0.276   8.189
    7        1.255   2.423   0.000   3.678
    8        1.255   2.422   0.000   3.677
    9        1.255   2.422   0.000   3.677
   10        1.255   2.422   0.000   3.677
tot         14.568  34.463  20.626  69.657

 magnetization (x)

[...]

  FORCE on cell =-STRESS in cart. coord.  units (eV):
  Direction    XX          YY          ZZ          XY          YZ          ZX
  Alpha Z   451.66504   451.66504   451.66504
  Ewald   -2313.89006 -2313.88560 -1362.85125    -0.00001     0.00002    -0.33554
  Hartree   580.81856   580.82131  1108.85728    -0.00000     0.00002    -0.23147
  E(xc)    -437.28176  -437.28155  -437.76512    -0.00000     0.00000    -0.00018
  Local     720.41021   720.40278  -710.36246     0.00001    -0.00004     0.57774
  n-local  -256.44922  -256.44931  -243.30669     0.00000     0.00000    -0.00028
  augment   209.90962   209.91174   203.26871    -0.00000    -0.00000     0.00154
  Kinetic  1044.84907  1044.84983   990.63178    -0.00000    -0.00000    -0.00217
  Fock        0.00000     0.00000     0.00000     0.00000     0.00000     0.00000
  Total       0.03146     0.03424     0.13730     0.00000     0.00000     0.00965
  in kB       0.31600     0.34385     1.37888     0.00000     0.00001     0.09691

 VOLUME and BASIS-vectors are now :
  energy-cutoff  :      520.00
  volume of cell :      159.53
      direct lattice vectors                 reciprocal lattice vectors
     3.574043013  0.000000006 -0.000000042     0.279795178 -0.000000001  0.000000003
     0.000000007  3.574042987 -0.000000007    -0.000000001  0.279795180  0.000000001
    -0.000000145 -0.000000025 12.488892887     0.000000001  0.000000000  0.080071149

  length of vectors
     3.574043013  3.574042987 12.488892887     0.279795178  0.279795180  0.080071149

 FORCES acting on ions
    electron-ion (+dipol)            ewald-force                    non-local-force                 convergence-correction
   -.705E-02 0.902E-05 0.130E+01   0.553E-02 -.892E-05 -.135E+01   0.123E-02 0.159E-06 0.319E-01   -.265E-06 -.307E-06 -.806E-05
   0.153E+00 -.110E-04 0.187E+00   -.154E+00 0.107E-04 -.224E+00   -.104E-02 0.278E-06 0.228E-01   -.171E-05 0.448E-07 -.574E-05
   -.540E+00 0.160E-04 -.256E+02   0.533E+00 -.155E-04 0.232E+02   0.205E-01 -.723E-06 0.245E+01   -.255E-06 0.428E-07 -.534E-04
   -.566E-02 0.922E-05 0.225E+02   0.568E-02 -.924E-05 -.200E+02   0.708E-04 -.279E-06 -.247E+01   -.193E-06 0.181E-06 0.473E-04
   0.363E-03 0.571E-06 -.203E+02   -.357E-03 -.372E-06 0.178E+02   0.886E-05 -.397E-06 0.250E+01   -.109E-06 -.305E-06 -.525E-04
   0.984E-01 -.222E-04 0.217E+02   -.105E+00 0.213E-04 -.193E+02   0.275E-02 0.132E-05 -.249E+01   0.372E-06 0.614E-07 0.626E-04
   -.621E-01 0.893E-05 -.989E+02   0.676E-01 -.864E-05 0.109E+03   -.648E-02 -.514E-06 -.102E+02   -.964E-07 0.559E-07 -.590E-04
   -.390E-03 -.753E-06 0.100E+03   0.195E-03 0.718E-06 -.111E+03   0.310E-03 -.115E-06 0.102E+02   -.292E-07 0.128E-06 0.639E-04
   0.353E-02 -.603E-05 -.994E+02   -.350E-02 0.611E-05 0.110E+03   -.123E-03 0.869E-07 -.101E+02   -.539E-07 -.292E-07 -.682E-04
   0.343E+00 -.426E-05 0.980E+02   -.350E+00 0.384E-05 -.108E+03   0.227E-02 0.750E-06 0.101E+02   -.810E-07 0.115E-07 0.646E-04
   -.181E-01 -.437E-06 0.109E-01   0.855E-14 0.549E-14 -.284E-13   0.195E-01 0.570E-06 -.733E-02   -.242E-05 -.114E-06 -.860E-05

 POSITION                                       TOTAL-FORCE (eV/Angst)
      3.57404      0.00000      0.00000        -0.000391     -0.000000     -0.012332
      1.78702      1.78702      6.24445        -0.002285      0.000000     -0.015772
      3.57129      3.57404      4.20623         0.013354     -0.000000      0.088223
      0.00000      0.00000      8.27305        -0.000046     -0.000000     -0.013588
      1.78702      1.78702     10.46029        -0.000124     -0.000001     -0.011694
      1.78702      1.78702      2.02860        -0.003958      0.000001     -0.007742
      3.57404      0.00000      1.82057        -0.001166     -0.000000     -0.017705
      3.57404     -0.00000     10.66832        -0.000023     -0.000000      0.012376
      1.78702      1.78702      8.06502        -0.000224      0.000000      0.015049
      1.78702      1.78702      4.42387        -0.005137      0.000000     -0.036815
    total drift:                                0.001389      0.000000      0.003543

  FREE ENERGIE OF THE ION-ELECTRON SYSTEM (eV)
  free  energy   TOTEN  =      -111.54182963 eV

  energy  without entropy=     -111.54182963  energy(sigma->0) =     -111.54182963

 total charge

[...]

 magnetization (x)

# of ion       s       p       d       tot
    1        0.000   0.000  -0.000   0.000
    2        0.000   0.000  -0.000   0.000
    3        0.000   0.000   0.000   0.000
    4        0.000   0.000   0.000   0.000
    5        0.000   0.000   0.000   0.000
    6        0.000   0.000   0.000   0.000
    7       -0.000  -0.000   0.000  -0.000
    8       -0.000  -0.000   0.000  -0.000
    9       -0.000  -0.000   0.000  -0.000
   10       -0.000  -0.000   0.000  -0.000
tot          0.000  -0.000   0.000  -0.000