 vasp.6.1.2 22Jul20 (build Apr 14 2021 21:39:43) complex

 executed on             LinuxIFC date 2022.07.09  08:31:48

 INCAR:
 POTCAR:    PAW_PBE Sr_sv 07Sep2000
 POTCAR:    PAW_PBE Zn 06Sep2000
 POTCAR:    PAW_PBE N 08Apr2002
 POTCAR:    PAW_PBE Sr_sv 07Sep2000
   VRHFIN =Sr: 4s4p5s

   TITEL  = PAW_PBE Sr_sv 07Sep2000
   POMASS =   87.620; ZVAL   =   10.000    mass and valenz
   ENMAX  =  229.353; ENMIN  =  172.014 eV

   TITEL  = PAW_PBE Zn 06Sep2000
   POMASS =   65.390; ZVAL   =   12.000    mass and valenz
   ENMAX  =  276.723; ENMIN  =  207.542 eV

   TITEL  = PAW_PBE N 08Apr2002
   POMASS =   14.001; ZVAL   =    5.000    mass and valenz
   ENMAX  =  400.000; ENMIN  =  300.000 eV

  PAW_PBE Sr_sv 07Sep2000               :
  PAW_PBE Zn 06Sep2000                  :
  PAW_PBE N 08Apr2002                   :

 POSCAR: generated by phonopy
  positions in direct lattice

 METAGGA = SCAN     LMAXTAU =  6    LMIXTAU =  F

 ion  position               nearest neighbor table
   1  0.003  1.000  0.000-   5 2.66   4 2.66   4 2.67   5 2.67   4 2.67   5 2.67   3 3.08   2 3.08
                             3 3.08   2 3.08   2 3.09   3 3.09
   2  0.333  0.667  0.628-   5 2.12   5 2.12   5 2.12   4 2.18   3 2.58   3 2.58   3 2.58   1 3.08
                             1 3.08   1 3.09
   3  0.667  0.333  0.372-   4 2.12   4 2.12   4 2.12   5 2.18   2 2.58   2 2.58   2 2.58   1 3.08
                             1 3.08   1 3.09
   4  0.333  0.667  0.277-   3 2.12   3 2.12   3 2.12   2 2.18   1 2.66   1 2.67   1 2.67
   5  0.667  0.333  0.723-   2 2.12   2 2.12   2 2.12   3 2.18   1 2.66   1 2.67   1 2.67

IMPORTANT INFORMATION: All symmetrisations will be switched off!
NOSYMM: (Re-)initialisation of all symmetry stuff for point group C_1.

                                     Primitive cell

  volume of cell :      67.0709

  direct lattice vectors                    reciprocal lattice vectors
     3.527537600 -0.000068479 -0.000004402     0.283487045  0.163678720  0.000000224
    -1.763828104  3.054901805  0.000004174     0.000006355  0.327346433 -0.000000198
    -0.000007101  0.000003763  6.224008702     0.000000200 -0.000000104  0.160668156

  length of vectors
     3.527537600  3.527536622  6.224008702     0.327346342  0.327346433  0.160668156

  position of ions in fractional coordinates (direct lattice)
     0.002834489  0.999999964  0.000000236
     0.333334894  0.666665187  0.627712641
     0.666665281  0.333334833  0.372287090
     0.333336097  0.666664029  0.276941652
     0.666664017  0.333335987  0.723058412

  ion indices of the primitive-cell ions
   primitive index   ion index
                 1           1
                 2           2
                 3           3
                 4           4
                 5           5

 KPOINTS: Kpoints

Automatic generation of k-mesh.
 generate k-points for:   10   10    5
Space group operators:
 irot       det(A)        alpha          n_x          n_y          n_z        tau_x        tau_y        tau_z
    1     1.000000     0.000000     1.000000     0.000000     0.000000     0.000000     0.000000     0.000000

 Subroutine IBZKPT returns following result:

 Found    252 irreducible k-points:

 Following reciprocal coordinates:
            Coordinates               Weight
  0.000000  0.000000  0.000000      1.000000
  0.100000  0.000000 -0.000000      2.000000
 -0.000000  0.100000 -0.000000      2.000000
  0.200000  0.000000 -0.000000      2.000000
 -0.000000  0.200000  0.000000      2.000000
  0.300000 -0.000000  0.000000      2.000000
 -0.000000  0.300000  0.000000      2.000000
  0.400000 -0.000000  0.000000      2.000000
 -0.000000  0.400000  0.000000      2.000000
  0.500000 -0.000000  0.000000      1.000000
  0.000000  0.500000 -0.000000      1.000000
  0.100000  0.100000  0.000000      2.000000
  0.200000  0.100000 -0.000000      2.000000
  0.100000  0.200000 -0.000000      2.000000
  0.300000  0.100000  0.000000      2.000000
  0.100000  0.300000 -0.000000      2.000000
  0.400000  0.100000  0.000000      2.000000
  0.100000  0.400000  0.000000      2.000000
  0.500000  0.100000 -0.000000      2.000000
  0.100000  0.500000 -0.000000      2.000000
 -0.400000  0.100000  0.000000      2.000000
  0.100000 -0.400000 -0.000000      2.000000
 -0.300000  0.100000 -0.000000      2.000000
  0.100000 -0.300000  0.000000      2.000000
 -0.200000  0.100000 -0.000000      2.000000
  0.100000 -0.200000 -0.000000      2.000000
 -0.100000  0.100000  0.000000      2.000000
  0.200000  0.200000 -0.000000      2.000000
  0.300000  0.200000 -0.000000      2.000000
  0.200000  0.300000  0.000000      2.000000
  0.400000  0.200000  0.000000      2.000000
  0.200000  0.400000 -0.000000      2.000000
  0.500000  0.200000  0.000000      2.000000
  0.200000  0.500000 -0.000000      2.000000
 -0.400000  0.200000 -0.000000      2.000000
  0.200000 -0.400000  0.000000      2.000000
 -0.300000  0.200000 -0.000000      2.000000
  0.200000 -0.300000  0.000000      2.000000
 -0.200000  0.200000 -0.000000      2.000000
  0.300000  0.300000 -0.000000      2.000000
  0.400000  0.300000  0.000000      2.000000
  0.300000  0.400000 -0.000000      2.000000
  0.500000  0.300000  0.000000      2.000000
  0.300000  0.500000  0.000000      2.000000
 -0.400000  0.300000  0.000000      2.000000
  0.300000 -0.400000  0.000000      2.000000
 -0.300000  0.300000  0.000000      2.000000
  0.400000  0.400000 -0.000000      2.000000
  0.500000  0.400000  0.000000      2.000000
  0.400000  0.500000 -0.000000      2.000000
 -0.400000  0.400000  0.000000      2.000000
  0.500000  0.500000  0.000000      1.000000
 -0.000000  0.000000  0.200000      2.000000
  0.100000  0.000000  0.200000      2.000000
 -0.100000  0.000000  0.200000      2.000000
 -0.000000  0.100000 -0.200000      2.000000
  0.000000 -0.100000 -0.200000      2.000000
  0.200000 -0.000000  0.200000      2.000000
 -0.200000  0.000000  0.200000      2.000000
 -0.000000  0.200000 -0.200000      2.000000
[...]
 -0.400000  0.300000  0.400000      2.000000
  0.400000 -0.300000  0.400000      2.000000
  0.300000 -0.400000 -0.400000      2.000000
 -0.300000  0.400000 -0.400000      2.000000
 -0.300000  0.300000  0.400000      2.000000
  0.300000 -0.300000  0.400000      2.000000
  0.400000  0.400000  0.400000      2.000000
 -0.400000 -0.400000  0.400000      2.000000
  0.500000  0.400000  0.400000      2.000000
  0.500000 -0.400000  0.400000      2.000000
  0.400000  0.500000 -0.400000      2.000000
 -0.400000  0.500000 -0.400000      2.000000
 -0.400000  0.400000  0.400000      2.000000
  0.400000 -0.400000  0.400000      2.000000
  0.500000  0.500000  0.400000      2.000000

 Following cartesian coordinates:
            Coordinates               Weight
  0.000000  0.000000  0.000000      1.000000
  0.028349  0.016368  0.000000      2.000000
  0.000001  0.032735 -0.000000      2.000000
  0.056697  0.032736  0.000000      2.000000
  0.000001  0.065469 -0.000000      2.000000
  0.085046  0.049104  0.000000      2.000000
  0.000002  0.098204 -0.000000      2.000000
  0.113395  0.065471  0.000000      2.000000
  0.000003  0.130939 -0.000000      2.000000
  0.141744  0.081839  0.000000      1.000000
  0.000003  0.163673 -0.000000      1.000000
  0.028349  0.049103  0.000000      2.000000
  0.056698  0.065470  0.000000      2.000000
  0.028350  0.081837 -0.000000      2.000000
  0.085047  0.081838  0.000000      2.000000
  0.028351  0.114572 -0.000000      2.000000
  0.113395  0.098206  0.000000      2.000000
  0.028351  0.147306 -0.000000      2.000000
  0.141744  0.114574  0.000000      2.000000
  0.028352  0.180041 -0.000000      2.000000
 -0.113394 -0.032737 -0.000000      2.000000
  0.028346 -0.114571  0.000000      2.000000
 -0.085045 -0.016369 -0.000000      2.000000
  0.028347 -0.081836  0.000000      2.000000
 -0.056697 -0.000001 -0.000000      2.000000
  0.028347 -0.049101  0.000000      2.000000
 -0.028348  0.016367 -0.000000      2.000000
  0.056699  0.098205  0.000000      2.000000
  0.085047  0.114573  0.000000      2.000000
  0.056699  0.130940 -0.000000      2.000000
  0.113396  0.130941  0.000000      2.000000
  0.056700  0.163674 -0.000000      2.000000
  0.141745  0.147309  0.000000      2.000000
  0.056701  0.196409 -0.000000      2.000000
 -0.113394 -0.000002 -0.000000      2.000000
  0.056695 -0.098203  0.000000      2.000000
 -0.085045  0.016366 -0.000000      2.000000
  0.056696 -0.065468  0.000000      2.000000
 -0.056696  0.032734 -0.000000      2.000000
  0.085048  0.147308  0.000000      2.000000
  0.113397  0.163675  0.000000      2.000000
  0.085049  0.180042 -0.000000      2.000000
  0.141745  0.180043  0.000000      2.000000
  0.085049  0.212777 -0.000000      2.000000
 -0.113393  0.032732 -0.000000      2.000000
  0.085044 -0.081835  0.000000      2.000000
 -0.085044  0.049100 -0.000000      2.000000
  0.113397  0.196410  0.000000      2.000000
  0.141746  0.212778  0.000000      2.000000
  0.113398  0.229145 -0.000000      2.000000
 -0.113392  0.065467 -0.000000      2.000000
  0.141747  0.245513  0.000000      1.000000
  0.000000 -0.000000  0.032134      2.000000
  0.028349  0.016368  0.032134      2.000000
 -0.028349 -0.016368  0.032134      2.000000
  0.000001  0.032735 -0.032134      2.000000
 -0.000001 -0.032735 -0.032134      2.000000
  0.056697  0.032736  0.032134      2.000000
 -0.056697 -0.032736  0.032134      2.000000
  0.000001  0.065469 -0.032134      2.000000
[...]
 -0.113393  0.032732  0.064267      2.000000
  0.113393 -0.032732  0.064267      2.000000
  0.085043 -0.081835 -0.064267      2.000000
 -0.085044  0.081835 -0.064267      2.000000
 -0.085044  0.049100  0.064267      2.000000
  0.085044 -0.049100  0.064267      2.000000
  0.113397  0.196410  0.064267      2.000000
 -0.113397 -0.196410  0.064267      2.000000
  0.141746  0.212778  0.064267      2.000000
  0.141741 -0.049099  0.064267      2.000000
  0.113398  0.229145 -0.064267      2.000000
 -0.113392  0.098202 -0.064267      2.000000
 -0.113392  0.065467  0.064267      2.000000
  0.113392 -0.065467  0.064267      2.000000
  0.141747  0.245513  0.064267      2.000000

 SYSTEM =  unknown system
 POSCAR =  generated by phonopy

 Startparameter for this run:
   NWRITE =      2    write-flag & timer
   PREC   = accura    normal or accurate (medium, high low for compatibility)
   ISTART =      0    job   : 0-new  1-cont  2-samecut
   ICHARG =      2    charge: 1-file 2-atom 10-const
   ISPIN  =      2    spin polarized calculation?
   LNONCOLLINEAR =      F non collinear calculations
   LSORBIT =      F    spin-orbit coupling
   INIWAV =      1    electr: 0-lowe 1-rand  2-diag
   LASPH  =      T    aspherical Exc in radial PAW
   METAGGA=      F    non-selfconsistent MetaGGA calc.

 Electronic Relaxation 1
   ENCUT  =  520.0 eV  38.22 Ry    6.18 a.u.   6.56  6.56 11.57*2*pi/ulx,y,z
   ENINI  =  520.0     initial cutoff
   ENAUG  =  627.1 eV  augmentation charge cutoff
   NELM   =    200;   NELMIN=  6; NELMDL= -5     # of ELM steps
   EDIFF  = 0.1E-04   stopping-criterion for ELM
   LREAL  =      F    real-space projection
   NLSPLINE    = F    spline interpolate recip. space projectors
   LCOMPAT=      F    compatible to vasp.4.4
[...]
   0.30000000 -0.40000000 -0.40000000       0.004
  -0.30000000  0.40000000 -0.40000000       0.004
  -0.30000000  0.30000000  0.40000000       0.004
   0.30000000 -0.30000000  0.40000000       0.004
   0.40000000  0.40000000  0.40000000       0.004
  -0.40000000 -0.40000000  0.40000000       0.004
   0.50000000  0.40000000  0.40000000       0.004
   0.50000000 -0.40000000  0.40000000       0.004
   0.40000000  0.50000000 -0.40000000       0.004
  -0.40000000  0.50000000 -0.40000000       0.004
  -0.40000000  0.40000000  0.40000000       0.004
   0.40000000 -0.40000000  0.40000000       0.004
   0.50000000  0.50000000  0.40000000       0.004

 position of ions in fractional coordinates (direct lattice)
   0.00283449  0.99999996  0.00000024
   0.33333489  0.66666519  0.62771264
   0.66666528  0.33333483  0.37228709
   0.33333610  0.66666403  0.27694165
   0.66666402  0.33333599  0.72305841

 position of ions in cartesian coordinates  (Angst):
  -1.75382927  3.05490150  0.00000563
  -0.00003588  2.03657622  3.90689026
   1.76373885  1.01826093  2.31711654
  -0.00002710  2.03657136  1.72368857
   1.76372987  1.01826578  4.50032030

 k-point   1 :   0.0000 0.0000 0.0000  plane waves:    1835
 k-point   2 :   0.1000 0.0000-0.0000  plane waves:    1831
 k-point   3 :  -0.0000 0.1000-0.0000  plane waves:    1831
 k-point   4 :   0.2000 0.0000-0.0000  plane waves:    1823
 k-point   5 :  -0.0000 0.2000 0.0000  plane waves:    1823
 k-point   6 :   0.3000-0.0000 0.0000  plane waves:    1807
 k-point   7 :  -0.0000 0.3000 0.0000  plane waves:    1807
 k-point   8 :   0.4000-0.0000 0.0000  plane waves:    1804
 k-point   9 :  -0.0000 0.4000 0.0000  plane waves:    1804
 k-point  10 :   0.5000-0.0000 0.0000  plane waves:    1814
 k-point  11 :   0.0000 0.5000-0.0000  plane waves:    1814
 k-point  12 :   0.1000 0.1000 0.0000  plane waves:    1823
 k-point  13 :   0.2000 0.1000-0.0000  plane waves:    1817
 k-point  14 :   0.1000 0.2000-0.0000  plane waves:    1817
 k-point  15 :   0.3000 0.1000 0.0000  plane waves:    1805
 k-point  16 :   0.1000 0.3000-0.0000  plane waves:    1805
 k-point  17 :   0.4000 0.1000 0.0000  plane waves:    1800
 k-point  18 :   0.1000 0.4000 0.0000  plane waves:    1800
 k-point  19 :   0.5000 0.1000-0.0000  plane waves:    1800
 k-point  20 :   0.1000 0.5000-0.0000  plane waves:    1800
 k-point  21 :  -0.4000 0.1000 0.0000  plane waves:    1805
 k-point  22 :   0.1000-0.4000-0.0000  plane waves:    1805
 k-point  23 :  -0.3000 0.1000-0.0000  plane waves:    1817
 k-point  24 :   0.1000-0.3000 0.0000  plane waves:    1817
 k-point  25 :  -0.2000 0.1000-0.0000  plane waves:    1823
 k-point  26 :   0.1000-0.2000-0.0000  plane waves:    1823
 k-point  27 :  -0.1000 0.1000 0.0000  plane waves:    1831
 k-point  28 :   0.2000 0.2000-0.0000  plane waves:    1807
 k-point  29 :   0.3000 0.2000-0.0000  plane waves:    1798
 k-point  30 :   0.2000 0.3000 0.0000  plane waves:    1798
 k-point  31 :   0.4000 0.2000 0.0000  plane waves:    1800
 k-point  32 :   0.2000 0.4000-0.0000  plane waves:    1800
 k-point  33 :   0.5000 0.2000 0.0000  plane waves:    1800
 k-point  34 :   0.2000 0.5000-0.0000  plane waves:    1800
 k-point  35 :  -0.4000 0.2000-0.0000  plane waves:    1807
 k-point  36 :   0.2000-0.4000 0.0000  plane waves:    1807
 k-point  37 :  -0.3000 0.2000-0.0000  plane waves:    1817
 k-point  38 :   0.2000-0.3000 0.0000  plane waves:    1817
 k-point  39 :  -0.2000 0.2000-0.0000  plane waves:    1823
 k-point  40 :   0.3000 0.3000-0.0000  plane waves:    1812
 k-point  41 :   0.4000 0.3000 0.0000  plane waves:    1812
 k-point  42 :   0.3000 0.4000-0.0000  plane waves:    1812
 k-point  43 :   0.5000 0.3000 0.0000  plane waves:    1800
 k-point  44 :   0.3000 0.5000 0.0000  plane waves:    1800
 k-point  45 :  -0.4000 0.3000 0.0000  plane waves:    1805
 k-point  46 :   0.3000-0.4000 0.0000  plane waves:    1805
 k-point  47 :  -0.3000 0.3000 0.0000  plane waves:    1807
 k-point  48 :   0.4000 0.4000-0.0000  plane waves:    1800
 k-point  49 :   0.5000 0.4000 0.0000  plane waves:    1800
 k-point  50 :   0.4000 0.5000-0.0000  plane waves:    1800
 k-point  51 :  -0.4000 0.4000 0.0000  plane waves:    1804
 k-point  52 :   0.5000 0.5000 0.0000  plane waves:    1814
 k-point  53 :  -0.0000 0.0000 0.2000  plane waves:    1859
 k-point  54 :   0.1000 0.0000 0.2000  plane waves:    1820
 k-point  55 :  -0.1000 0.0000 0.2000  plane waves:    1820
 k-point  56 :  -0.0000 0.1000-0.2000  plane waves:    1820
 k-point  57 :   0.0000-0.1000-0.2000  plane waves:    1820
 k-point  58 :   0.2000-0.0000 0.2000  plane waves:    1814
 k-point  59 :  -0.2000 0.0000 0.2000  plane waves:    1814
 k-point  60 :  -0.0000 0.2000-0.2000  plane waves:    1814
[...]
 k-point 238 :  -0.4000 0.3000 0.4000  plane waves:    1807
 k-point 239 :   0.4000-0.3000 0.4000  plane waves:    1807
 k-point 240 :   0.3000-0.4000-0.4000  plane waves:    1807
 k-point 241 :  -0.3000 0.4000-0.4000  plane waves:    1807
 k-point 242 :  -0.3000 0.3000 0.4000  plane waves:    1804
 k-point 243 :   0.3000-0.3000 0.4000  plane waves:    1804
 k-point 244 :   0.4000 0.4000 0.4000  plane waves:    1796
 k-point 245 :  -0.4000-0.4000 0.4000  plane waves:    1796
 k-point 246 :   0.5000 0.4000 0.4000  plane waves:    1792
 k-point 247 :   0.5000-0.4000 0.4000  plane waves:    1792
 k-point 248 :   0.4000 0.5000-0.4000  plane waves:    1792
 k-point 249 :  -0.4000 0.5000-0.4000  plane waves:    1792
 k-point 250 :  -0.4000 0.4000 0.4000  plane waves:    1802
 k-point 251 :   0.4000-0.4000 0.4000  plane waves:    1802
 k-point 252 :   0.5000 0.5000 0.4000  plane waves:    1786

 maximum and minimum number of plane-waves per node :       470      438

 maximum number of plane-waves:      1859
 maximum index in each direction:
   IXMAX=    6   IYMAX=    6   IZMAX=   11
   IXMIN=   -7   IYMIN=   -7   IZMIN=  -11

 parallel 3D FFT for wavefunctions:
    minimum data exchange during FFTs selected (reduces bandwidth)
 parallel 3D FFT for charge:
    minimum data exchange during FFTs selected (reduces bandwidth)

 Broyden mixing: mesh for mixing (old mesh)
   NGX = 13   NGY = 13   NGZ = 23
  (NGX  = 56   NGY  = 56   NGZ  = 96)
  gives a total of   3887 points

 initial charge density was supplied:
 charge density of overlapping atoms calculated
 number of electron      44.0000000 magnetization       0.3000000
 keeping initial charge density in first step

 Maximum index for augmentation-charges         1096 (set IRDMAX)

 First call to EWALD:  gamma=   0.436
 Maximum number of real-space cells 3x 3x 2
 Maximum number of reciprocal cells 2x 2x 4

--------------------------------------- Iteration      1(   1)  ---------------------------------------

 eigenvalue-minimisations  : 32288
 total energy-change (2. order) : 0.1915428E+03  (-0.2358870E+04)
 number of electron      44.0000000 magnetization       0.3000000
 augmentation part       44.0000000 magnetization       0.3000000

 Free energy of the ion-electron system (eV)
  alpha Z        PSCENC =       324.31491986
  Ewald energy   TEWEN  =     -3433.76125478
  -Hartree energ DENC   =     -1422.12400604
  -exchange      EXHF   =         0.00000000
  -V(xc)+E(xc)   XCENC  =       223.67513923
  PAW double counting   =      3912.52922034    -4309.43393378
  entropy T*S    EENTRO =        -0.00098795
  eigenvalues    EBANDS =        26.57747823
  atomic energy  EATOM  =      4869.76620653
  Solvation  Ediel_sol  =         0.00000000
  free energy    TOTEN  =       191.54278163 eV

  energy without entropy =      191.54376958  energy(sigma->0) =      191.54327560

[...]

 eigenvalue-minimisations  : 40704
 total energy-change (2. order) :-0.2628433E+03  (-0.2555753E+03)
 number of electron      44.0000000 magnetization       0.3000000
 augmentation part       44.0000000 magnetization       0.3000000

[...]

 Broyden mixing:
  rms(total) = 0.23422E+01    rms(broyden)= 0.23421E+01
  rms(prec ) = 0.29636E+01
  weight for this iteration     100.00

[...]

 eigenvalues of (default mixing * dielectric matrix)
  average eigenvalue GAMMA=   1.0160
  1.0160

[...]

 eigenvalue-minimisations  : 34400
 total energy-change (2. order) :-0.3212485E-04  (-0.1161579E-04)
 number of electron      44.0000000 magnetization      -0.0000049
 augmentation part       17.0607866 magnetization       0.0000755

[...]

 Broyden mixing:
  rms(total) = 0.17033E-02    rms(broyden)= 0.17032E-02
  rms(prec ) = 0.17792E-02
  weight for this iteration     100.00

 eigenvalues of (default mixing * dielectric matrix)
  average eigenvalue GAMMA=   1.1697
  2.5209  2.5209  1.2339  0.9115  0.9115  0.8585  0.6407  0.4143  0.5147

[...]

--------------------------------------- Iteration      1(  15)  ---------------------------------------

 eigenvalue-minimisations  : 18528
 total energy-change (2. order) : 0.1074877E-06  (-0.4132674E-06)
 number of electron      44.0000000 magnetization      -0.0000188
 augmentation part       17.0599258 magnetization      -0.0000288

 Free energy of the ion-electron system (eV)
  alpha Z        PSCENC =       324.31491986
  Ewald energy   TEWEN  =     -3433.76125478
  -Hartree energ DENC   =     -1409.97488199
  -exchange      EXHF   =         0.00000000
  -V(xc)+E(xc)   XCENC  =       229.69466029
  PAW double counting   =      6012.73191298    -6420.20547714
  entropy T*S    EENTRO =        -0.00000000
  eigenvalues    EBANDS =      -242.61628251
  atomic energy  EATOM  =      4869.76620653
  Solvation  Ediel_sol  =         0.00000000
  free energy    TOTEN  =       -70.05019677 eV

  energy without entropy =      -70.05019677  energy(sigma->0) =      -70.05019677

 average (electrostatic) potential at core
  the test charge radii are     1.1929  0.9521  0.7089
  (the norm of the test charge is              1.0000)
       1 -41.2084       2 -40.6108       3 -40.6109       4 -67.1220       5 -67.1220

 E-fermi :   3.5866     XC(G=0): -11.9797     alpha+bet :-10.9974

 spin component 1

 k-point     1 :       0.0000    0.0000    0.0000
  band No.  band energies     occupation
      1     -32.1926      1.00000
      2     -14.1938      1.00000
      3     -13.2183      1.00000
      4     -13.2183      1.00000
      5     -11.8510      1.00000
      6     -10.1881      1.00000
      7      -3.7272      1.00000
      8      -3.7270      1.00000
      9      -3.5948      1.00000
     10      -3.5947      1.00000
     11      -3.3256      1.00000
     12      -3.0643      1.00000
     13      -3.0642      1.00000
     14      -2.9151      1.00000
     15      -2.5780      1.00000
     16      -2.5780      1.00000
     17      -1.8493      1.00000
     18       2.2624      1.00000
     19       2.2627      1.00000
     20       3.1181      1.00000
     21       3.2674      1.00000
     22       3.2676      1.00000
     23       4.1523      0.00000
     24       6.6532      0.00000
     25       7.1764      0.00000
     26       8.9842      0.00000
     27       8.9847      0.00000
     28      10.2994      0.00000
     29      10.2998      0.00000
     30      10.8961      0.00000
     31      13.0548      0.00000
     32      13.0554      0.00000

[...]

 spin component 2

[...]

 k-point   252 :       0.5000    0.5000    0.4000
  band No.  band energies     occupation
      1     -32.0733      1.00000
      2     -14.4431      1.00000
      3     -13.5527      1.00000
      4     -13.4435      1.00000
      5     -11.0153      1.00000
      6     -10.2647      1.00000
      7      -3.7771      1.00000
      8      -3.4955      1.00000
      9      -3.3763      1.00000
     10      -3.2478      1.00000
     11      -3.2437      1.00000
     12      -3.0724      1.00000
     13      -3.0405      1.00000
     14      -2.9468      1.00000
     15      -2.5721      1.00000
     16      -2.5187      1.00000
     17      -1.4962      1.00000
     18      -0.9166      1.00000
     19       0.4957      1.00000
     20       0.7637      1.00000
     21       2.3754      1.00000
     22       2.4475      1.00000
     23       5.6564      0.00000
     24       7.4997      0.00000
     25       7.7773      0.00000
     26      10.2103      0.00000
     27      11.0925      0.00000
     28      11.4881      0.00000
     29      11.8753      0.00000
     30      12.3573      0.00000
     31      12.7146      0.00000
     32      14.4255      0.00000

 soft charge-density along one line, spin component           1
         0         1         2         3         4         5         6         7         8         9
 total charge-density along one line

 soft charge-density along one line, spin component           2
         0         1         2         3         4         5         6         7         8         9
 total charge-density along one line

------------------------ aborting loop because EDIFF is reached ----------------------------------------

 total charge

# of ion       s       p       d       tot
    1        2.020   5.868   0.284   8.172
    2        0.520   0.530   9.843  10.893
    3        0.520   0.530   9.843  10.893
    4        1.248   2.395   0.000   3.642
    5        1.248   2.395   0.000   3.642
tot          5.555  11.717  19.970  37.242

 magnetization (x)

[...]

  FORCE on cell =-STRESS in cart. coord.  units (eV):
  Direction    XX          YY          ZZ          XY          YZ          ZX
  Alpha Z   324.31492   324.31492   324.31492
  Ewald   -1065.77078 -1065.75391 -1302.23862     0.00294    -0.00150     0.00203
  Hartree   564.87086   564.87893   280.22083    -0.00033    -0.00020     0.00052
  E(xc)    -244.28508  -244.28512  -244.29511    -0.00006    -0.00004    -0.00006
  Local     -16.20276   -16.22722   504.44659    -0.00183     0.00171    -0.00130
  n-local  -133.40409  -133.40389  -133.64785     0.00024     0.00029     0.00002
  augment    96.50287    96.50028    95.49353    -0.00218    -0.00008     0.00000
  Kinetic   473.96046   473.96227   475.61268     0.00168    -0.00059    -0.00091
  Fock        0.00000     0.00000     0.00000     0.00000     0.00000     0.00000
  Total      -0.01361    -0.01374    -0.09304     0.00045    -0.00041     0.00030
  in kB      -0.32501    -0.32821    -2.22242     0.01084    -0.00990     0.00728

 VOLUME and BASIS-vectors are now :
  energy-cutoff  :      520.00
  volume of cell :       67.07
      direct lattice vectors                 reciprocal lattice vectors
     3.527537600 -0.000068479 -0.000004402     0.283487045  0.163678720  0.000000224
    -1.763828104  3.054901805  0.000004174     0.000006355  0.327346433 -0.000000198
    -0.000007101  0.000003763  6.224008702     0.000000200 -0.000000104  0.160668156

  length of vectors
     3.527537600  3.527536622  6.224008702     0.327346342  0.327346433  0.160668156

 FORCES acting on ions
    electron-ion (+dipol)            ewald-force                    non-local-force                 convergence-correction
   0.113E+01 -.297E-04 0.140E-02   -.111E+01 0.207E-04 -.145E-02   -.621E-01 -.991E-06 0.115E-04   -.920E-04 0.549E-05 0.983E-05
   -.254E+00 0.103E-01 -.270E+03   0.265E+00 -.103E-01 0.272E+03   -.533E-02 -.154E-03 -.154E+01   0.314E-04 -.203E-05 -.621E-02
   -.227E+00 -.103E-01 0.270E+03   0.238E+00 0.103E-01 -.272E+03   -.659E-02 0.166E-03 0.154E+01   0.621E-05 0.228E-05 0.621E-02
   -.317E+00 0.634E-02 0.196E+03   0.309E+00 -.646E-02 -.203E+03   0.224E-01 -.960E-04 0.746E+01   0.217E-04 0.991E-05 0.745E-02
   -.306E+00 -.634E-02 -.196E+03   0.298E+00 0.646E-02 0.203E+03   0.229E-01 0.100E-03 -.746E+01   0.576E-04 -.101E-04 -.744E-02
   0.273E-01 -.130E-04 0.657E-04   -.261E-14 -.295E-14 0.000E+00   -.288E-01 0.149E-04 -.563E-04   0.249E-04 0.555E-05 0.117E-04

 POSITION                                       TOTAL-FORCE (eV/Angst)
     -1.75383      3.05490      0.00001        -0.042320     -0.000006     -0.000026
     -0.00004      2.03658      3.90689         0.006255     -0.000153      0.007492
      1.76374      1.01826      2.31712         0.006034      0.000161     -0.007446
     -0.00003      2.03657      1.72369         0.015101     -0.000207      0.007186
      1.76373      1.01827      4.50032         0.014930      0.000205     -0.007205
    total drift:                               -0.001506      0.000007      0.000021

  FREE ENERGIE OF THE ION-ELECTRON SYSTEM (eV)
  free  energy   TOTEN  =       -70.05019677 eV

  energy  without entropy=      -70.05019677  energy(sigma->0) =      -70.05019677

 total charge

[...]

 magnetization (x)

# of ion       s       p       d       tot
    1        0.000  -0.000   0.000   0.000
    2        0.000   0.000  -0.000   0.000
    3        0.000   0.000  -0.000   0.000
    4       -0.000  -0.000   0.000  -0.000
    5       -0.000  -0.000   0.000  -0.000
tot          0.000  -0.000  -0.000  -0.000