 vasp.6.1.2 22Jul20 (build Apr 14 2021 21:39:43) complex

 executed on             LinuxIFC date 2021.08.22  21:11:35

 INCAR:
 POTCAR:    PAW_PBE Sr_sv 07Sep2000
 POTCAR:    PAW_PBE Zn 06Sep2000
 POTCAR:    PAW_PBE N 08Apr2002
 POTCAR:    PAW_PBE Sr_sv 07Sep2000
   VRHFIN =Sr: 4s4p5s

   TITEL  = PAW_PBE Sr_sv 07Sep2000
   POMASS =   87.620; ZVAL   =   10.000    mass and valenz
   ENMAX  =  229.353; ENMIN  =  172.014 eV

   TITEL  = PAW_PBE Zn 06Sep2000
   POMASS =   65.390; ZVAL   =   12.000    mass and valenz
   ENMAX  =  276.723; ENMIN  =  207.542 eV

   TITEL  = PAW_PBE N 08Apr2002
   POMASS =   14.001; ZVAL   =    5.000    mass and valenz
   ENMAX  =  400.000; ENMIN  =  300.000 eV

  PAW_PBE Sr_sv 07Sep2000               :
  PAW_PBE Zn 06Sep2000                  :
  PAW_PBE N 08Apr2002                   :

 POSCAR: generated by phonopy
  positions in direct lattice

 METAGGA = SCAN     LMAXTAU =  6    LMIXTAU =  F

 ion  position               nearest neighbor table
   1  0.000  1.000  0.342-   7 2.54  10 2.73  10 2.73  10 2.73  10 2.73   6 3.39   6 3.39   6 3.39
                             6 3.39   4 3.59   4 3.59   4 3.59   4 3.59   2 4.04
   2  0.000  0.000  0.658-   8 2.53   9 2.73   9 2.73   9 2.73   9 2.73   6 3.39   6 3.39   6 3.39
                             6 3.39   3 3.59   3 3.59   3 3.59   3 3.59   1 4.04
   3  0.500  0.500  0.842-   9 2.54   8 2.73   8 2.73   8 2.73   8 2.73   5 3.39   5 3.39   5 3.39
                             5 3.39   2 3.59   2 3.59   2 3.59   2 3.59   4 4.04
   4  0.500  0.500  0.158-  10 2.54   7 2.73   7 2.73   7 2.73   7 2.73   5 3.39   5 3.39   5 3.39
                             5 3.39   1 3.59   1 3.59   1 3.59   1 3.59   3 4.04
   5  1.000  0.000  0.000-   7 1.82   8 1.83   4 3.39   4 3.39   4 3.39   4 3.39   3 3.39   3 3.39
                             3 3.39   3 3.39
   6  0.500  0.500  0.500-  10 1.82   9 1.82   1 3.39   1 3.39   1 3.39   1 3.39   2 3.39   2 3.39
                             2 3.39   2 3.39
   7  1.000  0.000  0.143-   5 1.82   1 2.54   4 2.73   4 2.73   4 2.73   4 2.73
   8  0.999  0.000  0.857-   5 1.83   2 2.53   3 2.73   3 2.73   3 2.73   3 2.73
   9  0.500  0.500  0.643-   6 1.82   3 2.54   2 2.73   2 2.73   2 2.73   2 2.73
  10  0.500  0.500  0.357-   6 1.82   4 2.54   1 2.73   1 2.73   1 2.73   1 2.73

IMPORTANT INFORMATION: All symmetrisations will be switched off!
NOSYMM: (Re-)initialisation of all symmetry stuff for point group C_1.

                                     Primitive cell

  volume of cell :     189.4114

  direct lattice vectors                    reciprocal lattice vectors
     3.851102821  0.000000006 -0.000000101     0.259665879 -0.000000000  0.000000007
     0.000000007  3.851102715 -0.000000006    -0.000000000  0.259665886  0.000000000
    -0.000000333 -0.000000021 12.771321364     0.000000002  0.000000000  0.078300434

  length of vectors
     3.851102821  3.851102715 12.771321364     0.259665879  0.259665886  0.078300434

  position of ions in fractional coordinates (direct lattice)
     0.000000015  0.999999969  0.341862114
     0.000000070  0.000000002  0.658137891
     0.500000049  0.500000008  0.841862095
     0.500000072  0.499999952  0.158137898
     0.999999990  0.000000014  0.000000255
     0.499999982  0.500000015  0.499999745
     0.999999969  0.000000005  0.142666958
     0.999250286  0.000000014  0.856583161
     0.499999967  0.500000003  0.642667132
     0.499999936  0.500000017  0.357333087

  ion indices of the primitive-cell ions
   primitive index   ion index
                 1           1
                 2           2
                 3           3
                 4           4
                 5           5
                 6           6
                 7           7
                 8           8
                 9           9
                10          10

 KPOINTS: Kpoints

Automatic generation of k-mesh.
 generate k-points for:    8    8    3
Space group operators:
 irot       det(A)        alpha          n_x          n_y          n_z        tau_x        tau_y        tau_z
    1     1.000000     0.000000     1.000000     0.000000     0.000000     0.000000     0.000000     0.000000

 Subroutine IBZKPT returns following result:

 Found     98 irreducible k-points:

 Following reciprocal coordinates:
            Coordinates               Weight
  0.000000  0.000000  0.000000      1.000000
  0.125000  0.000000  0.000000      2.000000
  0.000000  0.125000  0.000000      2.000000
  0.250000  0.000000  0.000000      2.000000
  0.000000  0.250000  0.000000      2.000000
  0.375000 -0.000000  0.000000      2.000000
  0.000000  0.375000 -0.000000      2.000000
  0.500000  0.000000  0.000000      1.000000
  0.000000  0.500000 -0.000000      1.000000
  0.125000  0.125000  0.000000      2.000000
 -0.125000  0.125000  0.000000      2.000000
  0.250000  0.125000  0.000000      2.000000
 -0.125000  0.250000  0.000000      2.000000
 -0.250000  0.125000  0.000000      2.000000
  0.125000  0.250000  0.000000      2.000000
  0.375000  0.125000  0.000000      2.000000
 -0.125000  0.375000 -0.000000      2.000000
 -0.375000  0.125000  0.000000      2.000000
  0.125000  0.375000 -0.000000      2.000000
  0.500000  0.125000  0.000000      2.000000
 -0.125000  0.500000 -0.000000      2.000000
  0.250000  0.250000  0.000000      2.000000
 -0.250000  0.250000  0.000000      2.000000
  0.375000  0.250000  0.000000      2.000000
 -0.250000  0.375000 -0.000000      2.000000
 -0.375000  0.250000  0.000000      2.000000
  0.250000  0.375000 -0.000000      2.000000
  0.500000  0.250000  0.000000      2.000000
 -0.250000  0.500000 -0.000000      2.000000
  0.375000  0.375000 -0.000000      2.000000
 -0.375000  0.375000 -0.000000      2.000000
  0.500000  0.375000 -0.000000      2.000000
 -0.375000  0.500000 -0.000000      2.000000
  0.500000  0.500000 -0.000000      1.000000
  0.000000  0.000000  0.333333      2.000000
  0.125000 -0.000000  0.333333      2.000000
 -0.000000  0.125000  0.333333      2.000000
 -0.125000 -0.000000  0.333333      2.000000
 -0.000000 -0.125000  0.333333      2.000000
  0.250000  0.000000  0.333333      2.000000
 -0.000000  0.250000  0.333333      2.000000
 -0.250000  0.000000  0.333333      2.000000
  0.000000 -0.250000  0.333333      2.000000
  0.375000 -0.000000  0.333333      2.000000
  0.000000  0.375000  0.333333      2.000000
 -0.375000  0.000000  0.333333      2.000000
  0.000000 -0.375000  0.333333      2.000000
  0.500000  0.000000  0.333333      2.000000
 -0.000000  0.500000  0.333333      2.000000
  0.125000  0.125000  0.333333      2.000000
 -0.125000  0.125000  0.333333      2.000000
 -0.125000 -0.125000  0.333333      2.000000
  0.125000 -0.125000  0.333333      2.000000
  0.250000  0.125000  0.333333      2.000000
 -0.125000  0.250000  0.333333      2.000000
 -0.250000 -0.125000  0.333333      2.000000
  0.125000 -0.250000  0.333333      2.000000
 -0.250000  0.125000 -0.333333      2.000000
  0.125000  0.250000 -0.333333      2.000000
  0.250000 -0.125000 -0.333333      2.000000
[...]
  0.375000 -0.250000 -0.333333      2.000000
 -0.250000 -0.375000 -0.333333      2.000000
  0.500000  0.250000  0.333333      2.000000
 -0.250000  0.500000  0.333333      2.000000
  0.500000 -0.250000  0.333333      2.000000
  0.250000  0.500000  0.333333      2.000000
  0.375000  0.375000  0.333333      2.000000
 -0.375000  0.375000  0.333333      2.000000
 -0.375000 -0.375000  0.333333      2.000000
  0.375000 -0.375000  0.333333      2.000000
  0.500000  0.375000  0.333333      2.000000
 -0.375000  0.500000  0.333333      2.000000
  0.500000 -0.375000  0.333333      2.000000
  0.375000  0.500000  0.333333      2.000000
  0.500000  0.500000  0.333333      2.000000

 Following cartesian coordinates:
            Coordinates               Weight
  0.000000  0.000000  0.000000      1.000000
  0.032458 -0.000000  0.000000      2.000000
 -0.000000  0.032458  0.000000      2.000000
  0.064916 -0.000000  0.000000      2.000000
 -0.000000  0.064916  0.000000      2.000000
  0.097375 -0.000000  0.000000      2.000000
 -0.000000  0.097375  0.000000      2.000000
  0.129833 -0.000000  0.000000      1.000000
 -0.000000  0.129833  0.000000      1.000000
  0.032458  0.032458  0.000000      2.000000
 -0.032458  0.032458 -0.000000      2.000000
  0.064916  0.032458  0.000000      2.000000
 -0.032458  0.064916 -0.000000      2.000000
 -0.064916  0.032458 -0.000000      2.000000
  0.032458  0.064916  0.000000      2.000000
  0.097375  0.032458  0.000000      2.000000
 -0.032458  0.097375 -0.000000      2.000000
 -0.097375  0.032458 -0.000000      2.000000
  0.032458  0.097375  0.000000      2.000000
  0.129833  0.032458  0.000000      2.000000
 -0.032458  0.129833 -0.000000      2.000000
  0.064916  0.064916  0.000000      2.000000
 -0.064916  0.064916 -0.000000      2.000000
  0.097375  0.064916  0.000000      2.000000
 -0.064916  0.097375 -0.000000      2.000000
 -0.097375  0.064916 -0.000000      2.000000
  0.064916  0.097375  0.000000      2.000000
  0.129833  0.064916  0.000000      2.000000
 -0.064916  0.129833 -0.000000      2.000000
  0.097375  0.097375  0.000000      2.000000
 -0.097375  0.097375 -0.000000      2.000000
  0.129833  0.097375  0.000000      2.000000
 -0.097375  0.129833 -0.000000      2.000000
  0.129833  0.129833  0.000000      1.000000
  0.000000  0.000000  0.026100      2.000000
  0.032458 -0.000000  0.026100      2.000000
  0.000000  0.032458  0.026100      2.000000
 -0.032458  0.000000  0.026100      2.000000
  0.000000 -0.032458  0.026100      2.000000
  0.064916 -0.000000  0.026100      2.000000
  0.000000  0.064916  0.026100      2.000000
 -0.064916  0.000000  0.026100      2.000000
  0.000000 -0.064916  0.026100      2.000000
  0.097375 -0.000000  0.026100      2.000000
  0.000000  0.097375  0.026100      2.000000
 -0.097375  0.000000  0.026100      2.000000
  0.000000 -0.097375  0.026100      2.000000
  0.129833 -0.000000  0.026100      2.000000
  0.000000  0.129833  0.026100      2.000000
  0.032458  0.032458  0.026100      2.000000
 -0.032458  0.032458  0.026100      2.000000
 -0.032458 -0.032458  0.026100      2.000000
  0.032458 -0.032458  0.026100      2.000000
  0.064916  0.032458  0.026100      2.000000
 -0.032458  0.064916  0.026100      2.000000
 -0.064916 -0.032458  0.026100      2.000000
  0.032458 -0.064916  0.026100      2.000000
 -0.064916  0.032458 -0.026100      2.000000
  0.032458  0.064916 -0.026100      2.000000
  0.064916 -0.032458 -0.026100      2.000000
[...]
  0.097375 -0.064916 -0.026100      2.000000
 -0.064916 -0.097375 -0.026100      2.000000
  0.129833  0.064916  0.026100      2.000000
 -0.064916  0.129833  0.026100      2.000000
  0.129833 -0.064916  0.026100      2.000000
  0.064916  0.129833  0.026100      2.000000
  0.097375  0.097375  0.026100      2.000000
 -0.097375  0.097375  0.026100      2.000000
 -0.097375 -0.097375  0.026100      2.000000
  0.097375 -0.097375  0.026100      2.000000
  0.129833  0.097375  0.026100      2.000000
 -0.097375  0.129833  0.026100      2.000000
  0.129833 -0.097375  0.026100      2.000000
  0.097375  0.129833  0.026100      2.000000
  0.129833  0.129833  0.026100      2.000000

[...]
 k-point  46 :  -0.3750 0.0000 0.3333  plane waves:    5113
 k-point  47 :   0.0000-0.3750 0.3333  plane waves:    5113
 k-point  48 :   0.5000 0.0000 0.3333  plane waves:    5106
 k-point  49 :  -0.0000 0.5000 0.3333  plane waves:    5106
 k-point  50 :   0.1250 0.1250 0.3333  plane waves:    5078
 k-point  51 :  -0.1250 0.1250 0.3333  plane waves:    5078
 k-point  52 :  -0.1250-0.1250 0.3333  plane waves:    5078
 k-point  53 :   0.1250-0.1250 0.3333  plane waves:    5078
 k-point  54 :   0.2500 0.1250 0.3333  plane waves:    5094
 k-point  55 :  -0.1250 0.2500 0.3333  plane waves:    5094
 k-point  56 :  -0.2500-0.1250 0.3333  plane waves:    5094
 k-point  57 :   0.1250-0.2500 0.3333  plane waves:    5094
 k-point  58 :  -0.2500 0.1250-0.3333  plane waves:    5094
 k-point  59 :   0.1250 0.2500-0.3333  plane waves:    5094
 k-point  60 :   0.2500-0.1250-0.3333  plane waves:    5094
[...]
 k-point  84 :   0.3750-0.2500-0.3333  plane waves:    5095
 k-point  85 :  -0.2500-0.3750-0.3333  plane waves:    5095
 k-point  86 :   0.5000 0.2500 0.3333  plane waves:    5090
 k-point  87 :  -0.2500 0.5000 0.3333  plane waves:    5090
 k-point  88 :   0.5000-0.2500 0.3333  plane waves:    5090
 k-point  89 :   0.2500 0.5000 0.3333  plane waves:    5090
 k-point  90 :   0.3750 0.3750 0.3333  plane waves:    5110
 k-point  91 :  -0.3750 0.3750 0.3333  plane waves:    5110
 k-point  92 :  -0.3750-0.3750 0.3333  plane waves:    5110
 k-point  93 :   0.3750-0.3750 0.3333  plane waves:    5110
 k-point  94 :   0.5000 0.3750 0.3333  plane waves:    5114
 k-point  95 :  -0.3750 0.5000 0.3333  plane waves:    5114
 k-point  96 :   0.5000-0.3750 0.3333  plane waves:    5114
 k-point  97 :   0.3750 0.5000 0.3333  plane waves:    5114
 k-point  98 :   0.5000 0.5000 0.3333  plane waves:    5136

 maximum and minimum number of plane-waves per node :      1303     1249

 maximum number of plane-waves:      5136
 maximum index in each direction:
   IXMAX=    7   IYMAX=    7   IZMAX=   24
   IXMIN=   -7   IYMIN=   -7   IZMIN=  -24

 parallel 3D FFT for wavefunctions:
    minimum data exchange during FFTs selected (reduces bandwidth)
 parallel 3D FFT for charge:
    minimum data exchange during FFTs selected (reduces bandwidth)

 Broyden mixing: mesh for mixing (old mesh)
   NGX = 15   NGY = 15   NGZ = 47
  (NGX  = 60   NGY  = 60   NGZ  =192)
  gives a total of  10575 points

 initial charge density was supplied:
 charge density of overlapping atoms calculated
 number of electron      84.0000000 magnetization       0.6000000
 keeping initial charge density in first step

 Maximum index for augmentation-charges         1050 (set IRDMAX)

 First call to EWALD:  gamma=   0.309
 Maximum number of real-space cells 4x 4x 2
 Maximum number of reciprocal cells 2x 2x 6

--------------------------------------- Iteration      1(   1)  ---------------------------------------

 eigenvalue-minimisations  : 25088
 total energy-change (2. order) : 0.5390195E+03  (-0.4084774E+04)
 number of electron      84.0000000 magnetization       0.6000000
 augmentation part       84.0000000 magnetization       0.6000000

 Free energy of the ion-electron system (eV)
  alpha Z        PSCENC =       487.77386565
  Ewald energy   TEWEN  =     -5606.90583735
  -Hartree energ DENC   =     -2137.69705558
  -exchange      EXHF   =         0.00000000
  -V(xc)+E(xc)   XCENC  =       389.54447277
  PAW double counting   =      6184.04713378    -6608.31218866
  entropy T*S    EENTRO =        -0.00300947
  eigenvalues    EBANDS =       -97.35889045
  atomic energy  EATOM  =      7927.93097991
  Solvation  Ediel_sol  =         0.00000000
  free energy    TOTEN  =       539.01947059 eV

  energy without entropy =      539.02248006  energy(sigma->0) =      539.02097533

[...]

 eigenvalue-minimisations  : 26096
 total energy-change (2. order) :-0.6575665E+03  (-0.6165472E+03)
 number of electron      84.0000000 magnetization       0.6000000
 augmentation part       84.0000000 magnetization       0.6000000

[...]

 Broyden mixing:
  rms(total) = 0.35392E+01    rms(broyden)= 0.35391E+01
  rms(prec ) = 0.39035E+01
  weight for this iteration     100.00

[...]

 eigenvalues of (default mixing * dielectric matrix)
  average eigenvalue GAMMA=   0.9408
  0.9408

[...]

 eigenvalue-minimisations  : 31232
 total energy-change (2. order) : 0.4288849E-02  (-0.1256445E-01)
 number of electron      83.9999984 magnetization       0.0298492
 augmentation part       18.8118605 magnetization       0.0239766

[...]

 Broyden mixing:
  rms(total) = 0.92573E-04    rms(broyden)= 0.92563E-04
  rms(prec ) = 0.94889E-04
  weight for this iteration     100.00

 eigenvalues of (default mixing * dielectric matrix)
  average eigenvalue GAMMA=   1.2300
  2.9330  2.6156  2.5050  1.5926  1.2748  0.9961  0.8598  0.8598  0.7861  0.6464
  0.6464  0.5879  0.4623  0.4545

[...]

--------------------------------------- Iteration      1(  20)  ---------------------------------------

 eigenvalue-minimisations  : 18400
 total energy-change (2. order) :-0.3862724E-06  (-0.3273067E-08)
 number of electron      83.9999984 magnetization       0.0000458
 augmentation part       18.8178679 magnetization       0.0000427

 Free energy of the ion-electron system (eV)
  alpha Z        PSCENC =       487.77386565
  Ewald energy   TEWEN  =     -5606.90583735
  -Hartree energ DENC   =     -2145.70744165
  -exchange      EXHF   =         0.00000000
  -V(xc)+E(xc)   XCENC  =       406.17872913
  PAW double counting   =     10931.45352466   -11381.60929880
  entropy T*S    EENTRO =        -0.00000000
  eigenvalues    EBANDS =      -779.84608471
  atomic energy  EATOM  =      7927.93097991
  Solvation  Ediel_sol  =         0.00000000
  free energy    TOTEN  =      -160.73156316 eV

  energy without entropy =     -160.73156316  energy(sigma->0) =     -160.73156316

 average (electrostatic) potential at core
  the test charge radii are     1.1929  0.9521  0.7089
  (the norm of the test charge is              1.0000)
       1 -42.1712       2 -42.1418       3 -42.1596       4 -42.1822       5 -42.1917
       6 -42.1704       7 -67.4733       8 -67.4511       9 -67.4389      10 -67.4490

 E-fermi :   2.6030     XC(G=0): -10.3246     alpha+bet :-10.1558

 spin component 1

 k-point     1 :       0.0000    0.0000    0.0000
  band No.  band energies     occupation
      1     -33.0868      1.00000
      2     -33.0613      1.00000
      3     -32.9945      1.00000
      4     -32.9680      1.00000
      5     -14.9346      1.00000
      6     -14.8282      1.00000
      7     -14.6662      1.00000
      8     -14.5157      1.00000
      9     -14.3679      1.00000
     10     -14.3679      1.00000
     11     -14.3416      1.00000
     12     -14.3416      1.00000
     13     -14.1394      1.00000
     14     -14.1394      1.00000
     15     -14.1125      1.00000
     16     -14.1125      1.00000
     17     -11.5758      1.00000
     18     -11.3278      1.00000
     19     -10.8602      1.00000
     20     -10.6776      1.00000
     21      -4.7684      1.00000
     22      -4.7299      1.00000
     23      -4.7299      1.00000
     24      -4.7143      1.00000
     25      -4.7143      1.00000
     26      -4.7013      1.00000
     27      -4.6787      1.00000
     28      -4.6313      1.00000
     29      -4.6067      1.00000
     30      -4.5841      1.00000
     31      -2.1764      1.00000
     32      -1.5375      1.00000
     33       0.3756      1.00000
     34       0.4443      1.00000
     35       1.4982      1.00000
     36       1.4982      1.00000
     37       1.6206      1.00000
     38       1.6207      1.00000
     39       2.3037      1.00000
     40       2.3038      1.00000
     41       2.3253      1.00000
     42       2.3253      1.00000
     43       3.4310      0.00000
     44       4.6754      0.00000
     45       4.8960      0.00000
     46       5.3349      0.00000
     47       6.2989      0.00000
     48       6.3666      0.00000
     49       6.3666      0.00000
     50       6.6796      0.00000
     51       6.8779      0.00000
     52       7.3103      0.00000
     53       8.1085      0.00000
     54       8.1085      0.00000
     55       8.1762      0.00000
     56       8.1762      0.00000
     57       8.8678      0.00000
     58       8.9170      0.00000
     59       9.1531      0.00000
     60       9.2346      0.00000
     61      10.3196      0.00000
     62      10.4386      0.00000
     63      10.5826      0.00000
     64      11.0752      0.00000

[...]

 spin component 2

[...]

 k-point    98 :       0.5000    0.5000    0.3333
  band No.  band energies     occupation
      1     -33.0043      1.00000
      2     -32.9931      1.00000
      3     -32.9812      1.00000
      4     -32.9644      1.00000
      5     -14.7122      1.00000
      6     -14.7122      1.00000
      7     -14.7034      1.00000
      8     -14.6936      1.00000
      9     -14.6867      1.00000
     10     -14.6867      1.00000
     11     -14.6091      1.00000
     12     -14.5987      1.00000
     13     -14.3621      1.00000
     14     -14.3621      1.00000
     15     -14.3360      1.00000
     16     -14.3360      1.00000
     17     -11.3550      1.00000
     18     -11.3531      1.00000
     19     -10.6893      1.00000
     20     -10.6810      1.00000
     21      -4.7719      1.00000
     22      -4.7719      1.00000
     23      -4.7571      1.00000
     24      -4.7571      1.00000
     25      -4.6840      1.00000
     26      -4.6622      1.00000
     27      -4.5481      1.00000
     28      -4.5413      1.00000
     29      -4.5256      1.00000
     30      -4.5256      1.00000
     31      -0.5292      1.00000
     32      -0.5096      1.00000
     33       0.4876      1.00000
     34       0.4876      1.00000
     35       0.5677      1.00000
     36       0.5678      1.00000
     37       0.5880      1.00000
     38       0.5999      1.00000
     39       1.7262      1.00000
     40       1.7263      1.00000
     41       1.8089      1.00000
     42       1.8090      1.00000
     43       3.8255      0.00000
     44       3.8255      0.00000
     45       4.5704      0.00000
     46       4.5704      0.00000
     47       6.1692      0.00000
     48       6.1905      0.00000
     49       6.8364      0.00000
     50       6.8364      0.00000
     51       8.0762      0.00000
     52       8.0762      0.00000
     53       8.1342      0.00000
     54       8.1774      0.00000
     55       9.9001      0.00000
     56       9.9120      0.00000
     57      10.5158      0.00000
     58      10.5319      0.00000
     59      10.9353      0.00000
     60      10.9353      0.00000
     61      11.4835      0.00000
     62      11.4966      0.00000
     63      11.5503      0.00000
     64      11.5616      0.00000

 soft charge-density along one line, spin component           1
         0         1         2         3         4         5         6         7         8         9
 total charge-density along one line

 soft charge-density along one line, spin component           2
         0         1         2         3         4         5         6         7         8         9
 total charge-density along one line

------------------------ aborting loop because EDIFF is reached ----------------------------------------

 total charge

# of ion       s       p       d       tot
    1        2.017   5.843   0.233   8.094
    2        2.017   5.843   0.234   8.095
    3        2.017   5.843   0.233   8.094
    4        2.017   5.843   0.233   8.094
    5        0.696   0.640   9.751  11.087
    6        0.698   0.646   9.753  11.096
    7        1.259   2.389   0.000   3.648
    8        1.259   2.387   0.000   3.646
    9        1.258   2.389   0.000   3.648
   10        1.258   2.390   0.000   3.648
tot         14.497  34.214  20.439  69.149

 magnetization (x)

[...]

  FORCE on cell =-STRESS in cart. coord.  units (eV):
  Direction    XX          YY          ZZ          XY          YZ          ZX
  Alpha Z   487.77387   487.77387   487.77387
  Ewald   -2222.29145 -2222.29060 -1162.32906    -0.00001    -0.00000     0.46999
  Hartree   510.07243   510.07290  1125.55974    -0.00000    -0.00000     0.30357
  E(xc)    -403.61727  -403.61724  -404.25092    -0.00000    -0.00000     0.00037
  Local     717.20673   717.20560  -911.00824     0.00001     0.00001    -0.76321
  n-local  -301.61121  -301.61114  -289.64021     0.00000     0.00000     0.00285
  augment   115.32298   115.32300   111.06079     0.00000    -0.00000    -0.00152
  Kinetic  1097.09577  1097.09543  1042.44214    -0.00000     0.00000    -0.00945
  Fock        0.00000     0.00000     0.00000     0.00000     0.00000     0.00000
  Total      -0.04816    -0.04820    -0.39190    -0.00000     0.00000     0.00259
  in kB      -0.40734    -0.40769    -3.31493    -0.00000     0.00000     0.02195

 VOLUME and BASIS-vectors are now :
  energy-cutoff  :      520.00
  volume of cell :      189.41
      direct lattice vectors                 reciprocal lattice vectors
     3.851102821  0.000000006 -0.000000101     0.259665879 -0.000000000  0.000000007
     0.000000007  3.851102715 -0.000000006    -0.000000000  0.259665886  0.000000000
    -0.000000333 -0.000000021 12.771321364     0.000000002  0.000000000  0.078300434

  length of vectors
     3.851102821  3.851102715 12.771321364     0.259665879  0.259665886  0.078300434

 FORCES acting on ions
    electron-ion (+dipol)            ewald-force                    non-local-force                 convergence-correction
   0.349E-03 -.243E-04 0.283E+01   0.149E-03 0.231E-04 -.518E+01   -.406E-03 0.162E-05 0.237E+01   -.231E-06 -.116E-06 -.857E-04
   -.645E-01 -.366E-05 -.146E+01   0.605E-01 0.364E-05 0.387E+01   0.324E-02 -.873E-07 -.244E+01   0.631E-08 0.232E-06 -.716E-04
   0.317E+00 -.362E-05 0.753E+00   -.296E+00 0.348E-05 -.322E+01   -.252E-01 0.356E-06 0.245E+01   -.314E-05 -.729E-07 0.532E-04
   0.416E-02 -.314E-04 -.189E+01   -.484E-02 0.308E-04 0.430E+01   0.666E-03 0.138E-05 -.240E+01   0.100E-06 -.195E-06 0.661E-04
   -.298E+00 0.106E-04 0.228E+01   0.288E+00 -.108E-04 -.248E+01   0.562E-02 0.560E-06 0.521E-01   -.257E-05 -.193E-06 0.198E-03
   0.150E-02 0.752E-05 0.599E+00   -.187E-02 -.802E-05 -.532E+00   0.319E-03 -.341E-07 -.534E-01   0.150E-06 0.694E-06 -.125E-03
   -.696E-02 0.214E-04 -.129E+03   0.420E-02 -.216E-04 0.140E+03   0.459E-02 0.105E-07 -.104E+02   -.136E-06 -.105E-06 0.174E-03
   0.165E-01 0.149E-05 0.126E+03   -.370E-01 -.159E-05 -.136E+03   0.261E-01 0.101E-06 0.105E+02   -.112E-05 0.935E-07 -.109E-03
   0.133E-01 0.562E-05 -.129E+03   -.128E-01 -.601E-05 0.140E+03   -.877E-03 0.463E-06 -.105E+02   0.128E-06 -.206E-07 0.106E-03
   -.666E-04 0.131E-04 0.130E+03   -.755E-04 -.131E-04 -.140E+03   0.192E-03 -.390E-06 0.104E+02   0.393E-07 0.944E-07 -.175E-03
   -.170E-01 -.345E-05 0.523E-01   -.147E-13 -.197E-13 0.568E-13   0.143E-01 0.398E-05 -.460E-01   -.678E-05 0.412E-06 0.317E-04

 POSITION                                       TOTAL-FORCE (eV/Angst)
     -0.00000      3.85110      4.36603         0.000359      0.000000      0.019143
      0.00000     -0.00000      8.40529        -0.000414      0.000000     -0.023975
      1.92555      1.92555     10.75169        -0.003771      0.000000     -0.022001
      1.92555      1.92555      2.01963         0.000254      0.000001      0.005860
      3.85110      0.00000      0.00000        -0.004481     -0.000000     -0.149197
      1.92555      1.92555      6.38566         0.000232     -0.000000      0.012445
      3.85110      0.00000      1.82205         0.002124     -0.000000     -0.024670
      3.84822      0.00000     10.93970         0.005525      0.000000      0.216266
      1.92555      1.92555      8.20771        -0.000148     -0.000000     -0.019888
      1.92555      1.92555      4.56362         0.000319     -0.000000     -0.013982
    total drift:                               -0.002684      0.000001      0.006365

  FREE ENERGIE OF THE ION-ELECTRON SYSTEM (eV)
  free  energy   TOTEN  =      -160.73156316 eV

  energy  without entropy=     -160.73156316  energy(sigma->0) =     -160.73156316

 total charge

[...]

 magnetization (x)

# of ion       s       p       d       tot
    1        0.000   0.000   0.000   0.000
    2        0.000   0.000   0.000   0.000
    3        0.000   0.000   0.000   0.000
    4        0.000   0.000   0.000   0.000
    5        0.000   0.000  -0.000   0.000
    6        0.000   0.000  -0.000   0.000
    7       -0.000  -0.000   0.000  -0.000
    8       -0.000  -0.000   0.000  -0.000
    9       -0.000  -0.000   0.000  -0.000
   10       -0.000  -0.000   0.000  -0.000
tot          0.000  -0.000   0.000  -0.000