 vasp.6.3.1 04May22 (build Nov  5 2022 14:28:48) complex
 executed on              LinuxNV date 2022.11.29  12:39:47

 INCAR:
   ALGO = Normal
   EDIFF = 1E-6
   EDIFFG = -0.03
   ENCUT = 520
   IBRION = -1
   ICHARG = 2
   ISIF = 2
   ISYM = 0
   ISPIN = 2
   LREAL = False
   NELMIN = 6
   NELM = 200
   PREC = Accurate
   ISMEAR = 0
   SIGMA = 0.05
   MAGMOM = 5*0.06
   LWAVE = False
   LCHARG = False
   LORBIT = 11
   LPLANE = True
   NCORE = 6
   NSIM = 4
   METAGGA = SCAN
   LASPH = True

 POTCAR:    PAW_PBE Ca_sv 06Sep2000
 POTCAR:    PAW_PBE Zn 06Sep2000
 POTCAR:    PAW_PBE P 06Sep2000
 POTCAR:    PAW_PBE Ca_sv 06Sep2000
   VRHFIN =Ca: 3s3p4s

   TITEL  = PAW_PBE Ca_sv 06Sep2000
   POMASS =   40.078; ZVAL   =   10.000    mass and valenz
   ENMAX  =  266.622; ENMIN  =  199.967 eV

   TITEL  = PAW_PBE Zn 06Sep2000
   POMASS =   65.390; ZVAL   =   12.000    mass and valenz
   ENMAX  =  276.723; ENMIN  =  207.542 eV

   TITEL  = PAW_PBE P 06Sep2000
   POMASS =   30.974; ZVAL   =    5.000    mass and valenz
   ENMAX  =  255.040; ENMIN  =  191.280 eV

  PAW_PBE Ca_sv 06Sep2000               :
  PAW_PBE Zn 06Sep2000                  :
  PAW_PBE P 06Sep2000                   :

 POSCAR: generated by phonopy
  positions in direct lattice

 METAGGA = SCAN     LMAXTAU =  6    LMIXTAU =  F

 ion  position               nearest neighbor table
   1  1.000  1.000  1.000-   4 2.92   5 2.93   5 2.93   4 2.93   5 2.93   4 2.94
   2  0.333  0.667  0.633-   5 2.41   5 2.41   5 2.41   4 2.51   3 2.94   3 2.94   3 2.94
   3  0.667  0.333  0.367-   4 2.41   4 2.41   4 2.42   5 2.51   2 2.94   2 2.94   2 2.94
   4  0.333  0.664  0.265-   3 2.41   3 2.41   3 2.42   2 2.51   1 2.92   1 2.93   1 2.94
   5  0.667  0.333  0.735-   2 2.41   2 2.41   2 2.41   3 2.51   1 2.93   1 2.93   1 2.93

IMPORTANT INFORMATION: All symmetrisations will be switched off!
NOSYMM: (Re-)initialisation of all symmetry stuff for point group C_1.

                                     Primitive cell

  volume of cell :      94.4679

  direct lattice vectors                    reciprocal lattice vectors
     4.005197642 -0.000212520  0.000031215     0.249683220  0.144186399 -0.000002511
    -2.002782849  3.468158389 -0.000001936     0.000015300  0.288346301 -0.000001132
     0.000052989  0.000026694  6.801033585    -0.000001146 -0.000000580  0.147036474

  length of vectors
     4.005197648  4.004904712  6.801033585     0.288325212  0.288346301  0.147036474

  position of ions in fractional coordinates (direct lattice)
     0.999999990  0.999999998  0.999999991
     0.333327567  0.666663940  0.633265622
     0.666672409  0.333336061  0.366734740
     0.333335260  0.664171360  0.264714463
     0.666664714  0.333331703  0.735285214

  ion indices of the primitive-cell ions
   primitive index   ion index
                 1           1
                 2           2
                 3           3
                 4           4
                 5           5

 KPOINTS: Kpoints

Automatic generation of k-mesh.
 Grid dimensions derived from RKLEN:
 generate k-points for:    9    9    5

 Generating k-lattice:

  Cartesian coordinates                     Fractional coordinates (reciprocal lattice)
     0.027742580  0.016020711 -0.000000279     0.111111111 -0.000000000  0.000000000
     0.000001700  0.032038478 -0.000000126     0.000000000  0.111111111 -0.000000000
    -0.000000229 -0.000000116  0.029407295    -0.000000000  0.000000000  0.200000000

  Length of vectors
     0.032036135  0.032038478  0.029407295

  Shift w.r.t. Gamma in fractional coordinates (k-lattice)
     0.000000000  0.000000000  0.000000000

 Subroutine IBZKPT returns following result:

 Found    203 irreducible k-points:

 Following reciprocal coordinates:
            Coordinates               Weight
  0.000000  0.000000  0.000000      1.000000
  0.111111  0.000000  0.000000      2.000000
  0.222222  0.000000  0.000000      2.000000
  0.333333  0.000000  0.000000      2.000000
  0.444444  0.000000  0.000000      2.000000
  0.000000  0.111111  0.000000      2.000000
  0.111111  0.111111  0.000000      2.000000
  0.222222  0.111111  0.000000      2.000000
  0.333333  0.111111  0.000000      2.000000
  0.444444  0.111111  0.000000      2.000000
 -0.444444  0.111111  0.000000      2.000000
 -0.333333  0.111111  0.000000      2.000000
 -0.222222  0.111111  0.000000      2.000000
 -0.111111  0.111111  0.000000      2.000000
  0.000000  0.222222  0.000000      2.000000
  0.111111  0.222222  0.000000      2.000000
  0.222222  0.222222  0.000000      2.000000
  0.333333  0.222222  0.000000      2.000000
  0.444444  0.222222  0.000000      2.000000
 -0.444444  0.222222  0.000000      2.000000
 -0.333333  0.222222  0.000000      2.000000
 -0.222222  0.222222  0.000000      2.000000
 -0.111111  0.222222  0.000000      2.000000
  0.000000  0.333333  0.000000      2.000000
  0.111111  0.333333  0.000000      2.000000
  0.222222  0.333333  0.000000      2.000000
  0.333333  0.333333  0.000000      2.000000
  0.444444  0.333333  0.000000      2.000000
 -0.444444  0.333333  0.000000      2.000000
 -0.333333  0.333333  0.000000      2.000000
 -0.222222  0.333333  0.000000      2.000000
 -0.111111  0.333333  0.000000      2.000000
  0.000000  0.444444  0.000000      2.000000
  0.111111  0.444444  0.000000      2.000000
  0.222222  0.444444  0.000000      2.000000
  0.333333  0.444444  0.000000      2.000000
  0.444444  0.444444  0.000000      2.000000
 -0.444444  0.444444  0.000000      2.000000
 -0.333333  0.444444  0.000000      2.000000
 -0.222222  0.444444  0.000000      2.000000
 -0.111111  0.444444  0.000000      2.000000
  0.000000  0.000000  0.200000      2.000000
  0.111111  0.000000  0.200000      2.000000
 -0.111111  0.000000  0.200000      2.000000
  0.222222  0.000000  0.200000      2.000000
 -0.222222  0.000000  0.200000      2.000000
  0.333333  0.000000  0.200000      2.000000
 -0.333333  0.000000  0.200000      2.000000
  0.444444  0.000000  0.200000      2.000000
 -0.444444  0.000000  0.200000      2.000000
  0.000000  0.111111  0.200000      2.000000
  0.000000 -0.111111  0.200000      2.000000
  0.111111  0.111111  0.200000      2.000000
 -0.111111 -0.111111  0.200000      2.000000
  0.222222  0.111111  0.200000      2.000000
 -0.222222 -0.111111  0.200000      2.000000
  0.333333  0.111111  0.200000      2.000000
 -0.333333 -0.111111  0.200000      2.000000
  0.444444  0.111111  0.200000      2.000000
 -0.444444 -0.111111  0.200000      2.000000
[...]
 -0.111111 -0.444444  0.400000      2.000000
  0.222222  0.444444  0.400000      2.000000
 -0.222222 -0.444444  0.400000      2.000000
  0.333333  0.444444  0.400000      2.000000
 -0.333333 -0.444444  0.400000      2.000000
  0.444444  0.444444  0.400000      2.000000
 -0.444444 -0.444444  0.400000      2.000000
 -0.444444  0.444444  0.400000      2.000000
  0.444444 -0.444444  0.400000      2.000000
 -0.333333  0.444444  0.400000      2.000000
  0.333333 -0.444444  0.400000      2.000000
 -0.222222  0.444444  0.400000      2.000000
  0.222222 -0.444444  0.400000      2.000000
 -0.111111  0.444444  0.400000      2.000000
  0.111111 -0.444444  0.400000      2.000000

 Following cartesian coordinates:
            Coordinates               Weight
  0.000000  0.000000  0.000000      1.000000
  0.027743  0.016021 -0.000000      2.000000
  0.055485  0.032041 -0.000001      2.000000
  0.083228  0.048062 -0.000001      2.000000
  0.110970  0.064083 -0.000001      2.000000
  0.000002  0.032038 -0.000000      2.000000
  0.027744  0.048059 -0.000000      2.000000
  0.055487  0.064080 -0.000001      2.000000
  0.083229  0.080101 -0.000001      2.000000
  0.110972  0.096121 -0.000001      2.000000
 -0.110969 -0.032044  0.000001      2.000000
 -0.083226 -0.016024  0.000001      2.000000
 -0.055483 -0.000003  0.000000      2.000000
 -0.027741  0.016018  0.000000      2.000000
  0.000003  0.064077 -0.000000      2.000000
  0.027746  0.080098 -0.000001      2.000000
  0.055489  0.096118 -0.000001      2.000000
  0.083231  0.112139 -0.000001      2.000000
  0.110974  0.128160 -0.000001      2.000000
 -0.110967 -0.000006  0.000001      2.000000
 -0.083224  0.016015  0.000001      2.000000
 -0.055482  0.032036  0.000000      2.000000
 -0.027739  0.048056  0.000000      2.000000
  0.000005  0.096115 -0.000000      2.000000
  0.027748  0.112136 -0.000001      2.000000
  0.055490  0.128157 -0.000001      2.000000
  0.083233  0.144178 -0.000001      2.000000
  0.110975  0.160198 -0.000001      2.000000
 -0.110965  0.032033  0.000001      2.000000
 -0.083223  0.048053  0.000000      2.000000
 -0.055480  0.064074  0.000000      2.000000
 -0.027737  0.080095 -0.000000      2.000000
  0.000007  0.128154 -0.000001      2.000000
  0.027749  0.144175 -0.000001      2.000000
  0.055492  0.160195 -0.000001      2.000000
  0.083235  0.176216 -0.000001      2.000000
  0.110977  0.192237 -0.000002      2.000000
 -0.110964  0.064071  0.000001      2.000000
 -0.083221  0.080092  0.000000      2.000000
 -0.055478  0.096112  0.000000      2.000000
 -0.027736  0.112133 -0.000000      2.000000
 -0.000000 -0.000000  0.029407      2.000000
  0.027742  0.016021  0.029407      2.000000
 -0.027743 -0.016021  0.029408      2.000000
  0.055485  0.032041  0.029407      2.000000
 -0.055485 -0.032042  0.029408      2.000000
  0.083228  0.048062  0.029406      2.000000
 -0.083228 -0.048062  0.029408      2.000000
  0.110970  0.064083  0.029406      2.000000
 -0.110971 -0.064083  0.029408      2.000000
  0.000001  0.032038  0.029407      2.000000
 -0.000002 -0.032039  0.029407      2.000000
  0.027744  0.048059  0.029407      2.000000
 -0.027745 -0.048059  0.029408      2.000000
  0.055487  0.064080  0.029407      2.000000
 -0.055487 -0.064080  0.029408      2.000000
  0.083229  0.080100  0.029406      2.000000
 -0.083230 -0.080101  0.029408      2.000000
  0.110972  0.096121  0.029406      2.000000
 -0.110972 -0.096121  0.029409      2.000000
[...]
 -0.027750 -0.144175  0.058815      2.000000
  0.055492  0.160195  0.058814      2.000000
 -0.055492 -0.160196  0.058816      2.000000
  0.083234  0.176216  0.058813      2.000000
 -0.083235 -0.176216  0.058816      2.000000
  0.110977  0.192237  0.058813      2.000000
 -0.110978 -0.192237  0.058816      2.000000
 -0.110964  0.064071  0.058815      2.000000
  0.110963 -0.064071  0.058814      2.000000
 -0.083221  0.080092  0.058815      2.000000
  0.083220 -0.080092  0.058814      2.000000
 -0.055479  0.096112  0.058815      2.000000
  0.055478 -0.096113  0.058815      2.000000
 -0.027736  0.112133  0.058814      2.000000
  0.027735 -0.112133  0.058815      2.000000

 SYSTEM =  unknown system
 POSCAR =  generated by phonopy

 Startparameter for this run:
   NWRITE =      2    write-flag & timer
   PREC   = accura    normal or accurate (medium, high low for compatibility)
   ISTART =      0    job   : 0-new  1-cont  2-samecut
   ICHARG =      2    charge: 1-file 2-atom 10-const
   ISPIN  =      2    spin polarized calculation?
   LNONCOLLINEAR =      F non collinear calculations
   LSORBIT =      F    spin-orbit coupling
   INIWAV =      1    electr: 0-lowe 1-rand  2-diag
   LASPH  =      T    aspherical Exc in radial PAW
[...]
   0.11111111 -0.44444444  0.40000000       0.005

 position of ions in fractional coordinates (direct lattice)
   0.99999999  1.00000000  0.99999999
   0.33332757  0.66666394  0.63326562
   0.66667241  0.33333606  0.36673474
   0.33333526  0.66417136  0.26471446
   0.66666471  0.33333170  0.73528521

 position of ions in cartesian coordinates  (Angst):
   2.00246775  3.46797256  6.80106280
  -0.00010676  2.31204220  4.30686988
   2.00257445  1.15593036  2.49419545
   0.00489661  2.30338770  1.80034107
   2.00257189  1.15592509  5.00071960

 k-point   1 :   0.0000 0.0000 0.0000  plane waves:    2575
 k-point   2 :   0.1111 0.0000 0.0000  plane waves:    2561
 k-point   3 :   0.2222 0.0000 0.0000  plane waves:    2561
 k-point   4 :   0.3333 0.0000 0.0000  plane waves:    2565
 k-point   5 :   0.4444 0.0000 0.0000  plane waves:    2535
 k-point   6 :   0.0000 0.1111 0.0000  plane waves:    2561
 k-point   7 :   0.1111 0.1111 0.0000  plane waves:    2549
 k-point   8 :   0.2222 0.1111 0.0000  plane waves:    2550
 k-point   9 :   0.3333 0.1111 0.0000  plane waves:    2540
 k-point  10 :   0.4444 0.1111 0.0000  plane waves:    2533
 k-point  11 :  -0.4444 0.1111 0.0000  plane waves:    2540
 k-point  12 :  -0.3333 0.1111 0.0000  plane waves:    2548
 k-point  13 :  -0.2222 0.1111 0.0000  plane waves:    2549
 k-point  14 :  -0.1111 0.1111 0.0000  plane waves:    2561
 k-point  15 :   0.0000 0.2222 0.0000  plane waves:    2561
 k-point  16 :   0.1111 0.2222 0.0000  plane waves:    2550
 k-point  17 :   0.2222 0.2222 0.0000  plane waves:    2541
 k-point  18 :   0.3333 0.2222 0.0000  plane waves:    2530
 k-point  19 :   0.4444 0.2222 0.0000  plane waves:    2530
 k-point  20 :  -0.4444 0.2222 0.0000  plane waves:    2541
 k-point  21 :  -0.3333 0.2222 0.0000  plane waves:    2550
 k-point  22 :  -0.2222 0.2222 0.0000  plane waves:    2561
 k-point  23 :  -0.1111 0.2222 0.0000  plane waves:    2549
 k-point  24 :   0.0000 0.3333 0.0000  plane waves:    2565
 k-point  25 :   0.1111 0.3333 0.0000  plane waves:    2540
 k-point  26 :   0.2222 0.3333 0.0000  plane waves:    2530
 k-point  27 :   0.3333 0.3333 0.0000  plane waves:    2516
 k-point  28 :   0.4444 0.3333 0.0000  plane waves:    2530
 k-point  29 :  -0.4444 0.3333 0.0000  plane waves:    2540
 k-point  30 :  -0.3333 0.3333 0.0000  plane waves:    2565
 k-point  31 :  -0.2222 0.3333 0.0000  plane waves:    2550
 k-point  32 :  -0.1111 0.3333 0.0000  plane waves:    2550
 k-point  33 :   0.0000 0.4444 0.0000  plane waves:    2533
 k-point  34 :   0.1111 0.4444 0.0000  plane waves:    2532
 k-point  35 :   0.2222 0.4444 0.0000  plane waves:    2530
 k-point  36 :   0.3333 0.4444 0.0000  plane waves:    2530
 k-point  37 :   0.4444 0.4444 0.0000  plane waves:    2533
 k-point  38 :  -0.4444 0.4444 0.0000  plane waves:    2535
 k-point  39 :  -0.3333 0.4444 0.0000  plane waves:    2540
 k-point  40 :  -0.2222 0.4444 0.0000  plane waves:    2541
 k-point  41 :  -0.1111 0.4444 0.0000  plane waves:    2540
 k-point  42 :   0.0000 0.0000 0.2000  plane waves:    2563
 k-point  43 :   0.1111 0.0000 0.2000  plane waves:    2551
 k-point  44 :  -0.1111 0.0000 0.2000  plane waves:    2551
 k-point  45 :   0.2222 0.0000 0.2000  plane waves:    2546
 k-point  46 :  -0.2222 0.0000 0.2000  plane waves:    2546
 k-point  47 :   0.3333 0.0000 0.2000  plane waves:    2545
 k-point  48 :  -0.3333 0.0000 0.2000  plane waves:    2545
 k-point  49 :   0.4444 0.0000 0.2000  plane waves:    2539
 k-point  50 :  -0.4444 0.0000 0.2000  plane waves:    2539
 k-point  51 :   0.0000 0.1111 0.2000  plane waves:    2551
 k-point  52 :   0.0000-0.1111 0.2000  plane waves:    2551
 k-point  53 :   0.1111 0.1111 0.2000  plane waves:    2555
 k-point  54 :  -0.1111-0.1111 0.2000  plane waves:    2555
 k-point  55 :   0.2222 0.1111 0.2000  plane waves:    2554
 k-point  56 :  -0.2222-0.1111 0.2000  plane waves:    2554
 k-point  57 :   0.3333 0.1111 0.2000  plane waves:    2537
 k-point  58 :  -0.3333-0.1111 0.2000  plane waves:    2537
 k-point  59 :   0.4444 0.1111 0.2000  plane waves:    2527
 k-point  60 :  -0.4444-0.1111 0.2000  plane waves:    2527
[...]
 k-point 189 :  -0.1111-0.4444 0.4000  plane waves:    2526
 k-point 190 :   0.2222 0.4444 0.4000  plane waves:    2534
 k-point 191 :  -0.2222-0.4444 0.4000  plane waves:    2534
 k-point 192 :   0.3333 0.4444 0.4000  plane waves:    2534
 k-point 193 :  -0.3333-0.4444 0.4000  plane waves:    2534
 k-point 194 :   0.4444 0.4444 0.4000  plane waves:    2526
 k-point 195 :  -0.4444-0.4444 0.4000  plane waves:    2526
 k-point 196 :  -0.4444 0.4444 0.4000  plane waves:    2534
 k-point 197 :   0.4444-0.4444 0.4000  plane waves:    2534
 k-point 198 :  -0.3333 0.4444 0.4000  plane waves:    2537
 k-point 199 :   0.3333-0.4444 0.4000  plane waves:    2537
 k-point 200 :  -0.2222 0.4444 0.4000  plane waves:    2533
 k-point 201 :   0.2222-0.4444 0.4000  plane waves:    2533
 k-point 202 :  -0.1111 0.4444 0.4000  plane waves:    2538
 k-point 203 :   0.1111-0.4444 0.4000  plane waves:    2538

 maximum and minimum number of plane-waves per node :      2575     2516

 maximum number of plane-waves:      2575
 maximum index in each direction:
   IXMAX=    7   IYMAX=    7   IZMAX=   12
   IXMIN=   -7   IYMIN=   -7   IZMIN=  -13

 serial   3D FFT for wavefunctions
 parallel 3D FFT for charge:
    minimum data exchange during FFTs selected (reduces bandwidth)

 Broyden mixing: mesh for mixing (old mesh)
   NGX = 15   NGY = 15   NGZ = 25
  (NGX  = 60   NGY  = 60   NGZ  =108)
  gives a total of   5625 points

 initial charge density was supplied:
 charge density of overlapping atoms calculated
 number of electron      44.0000000 magnetization       0.3000000
 keeping initial charge density in first step

 Maximum index for augmentation-charges         23813 (set IRDMAX)

 First call to EWALD:  gamma=   0.389
 Maximum number of real-space cells 3x 3x 2
 Maximum number of reciprocal cells 2x 2x 4

--------------------------------------- Iteration      1(   1)  ---------------------------------------

 eigenvalue-minimisations  : 21112
 total energy-change (2. order) : 0.2727990E+03  (-0.2157565E+04)
 number of electron      44.0000000 magnetization       0.3000000
 augmentation part       44.0000000 magnetization       0.3000000

 Free energy of the ion-electron system (eV)
  alpha Z        PSCENC =       200.67494090
  Ewald energy   TEWEN  =     -3107.12416322
  -Hartree energ DENC   =     -1584.93293313
  -exchange      EXHF   =         0.00000000
  -V(xc)+E(xc)   XCENC  =       200.00970920
  PAW double counting   =      3898.68656279    -4276.38203333
  entropy T*S    EENTRO =        -0.00129840
  eigenvalues    EBANDS =        86.03246811
  atomic energy  EATOM  =      4855.83575891
  Solvation  Ediel_sol  =         0.00000000
  free energy    TOTEN  =       272.79901184 eV

  energy without entropy =      272.80031024  energy(sigma->0) =      272.79966104

[...]

 eigenvalue-minimisations  : 21276
 total energy-change (2. order) :-0.3160794E+03  (-0.3115046E+03)
 number of electron      44.0000000 magnetization       0.3000000
 augmentation part       44.0000000 magnetization       0.3000000

[...]

 Broyden mixing:
  rms(total) = 0.85232E+00    rms(broyden)= 0.85232E+00
  rms(prec ) = 0.12573E+01
  weight for this iteration     100.00

[...]

 eigenvalues of (default mixing * dielectric matrix)
  average eigenvalue GAMMA=   0.4958
  0.4958

[...]

 eigenvalue-minimisations  : 26230
 total energy-change (2. order) :-0.1339864E-03  (-0.4489203E-03)
 number of electron      43.9999990 magnetization       0.0011739
 augmentation part       17.7394749 magnetization       0.0008125

[...]

 Broyden mixing:
  rms(total) = 0.12819E-02    rms(broyden)= 0.12819E-02
  rms(prec ) = 0.15071E-02
  weight for this iteration     100.00

 eigenvalues of (default mixing * dielectric matrix)
  average eigenvalue GAMMA=   1.3840
  2.7489  2.7489  1.4704  1.4704  0.9401  0.9401  0.8794  0.6386  0.6192

[...]

--------------------------------------- Iteration      1(  15)  ---------------------------------------

 eigenvalue-minimisations  : 26020
 total energy-change (2. order) : 0.8151712E-06  (-0.8373551E-06)
 number of electron      43.9999990 magnetization      -0.0000013
 augmentation part       17.7385490 magnetization      -0.0000395

 Free energy of the ion-electron system (eV)
  alpha Z        PSCENC =       200.67494090
  Ewald energy   TEWEN  =     -3107.12416322
  -Hartree energ DENC   =     -1553.50154919
  -exchange      EXHF   =         0.00000000
  -V(xc)+E(xc)   XCENC  =       201.19826908
  PAW double counting   =      5147.41082557    -5538.73216671
  entropy T*S    EENTRO =        -0.00000000
  eigenvalues    EBANDS =      -267.18771684
  atomic energy  EATOM  =      4855.83575891
  Solvation  Ediel_sol  =         0.00000000
  free energy    TOTEN  =       -61.42580149 eV

  energy without entropy =      -61.42580149  energy(sigma->0) =      -61.42580149

 average (electrostatic) potential at core
  the test charge radii are     1.1137  0.9521  0.9587
  (the norm of the test charge is              1.0000)
       1 -49.4234       2 -40.8201       3 -40.8203       4 -86.6809       5 -86.6809

 E-fermi :   4.4258     XC(G=0): -10.8022     alpha+bet :-10.2383

 Fermi energy:         4.4257501901

 spin component 1

 k-point     1 :       0.0000    0.0000    0.0000
  band No.  band energies     occupation
      1     -38.3928      1.00000
      2     -18.5636      1.00000
      3     -18.4730      1.00000
      4     -18.4729      1.00000
      5      -8.2982      1.00000
      6      -6.9264      1.00000
      7      -3.5999      1.00000
      8      -3.5973      1.00000
      9      -3.5125      1.00000
     10      -3.5121      1.00000
     11      -3.2574      1.00000
     12      -3.2537      1.00000
     13      -3.2167      1.00000
     14      -3.1290      1.00000
     15      -2.9800      1.00000
     16      -2.9799      1.00000
     17      -1.4263      1.00000
     18       2.7837      1.00000
     19       2.7999      1.00000
     20       4.0713      1.00000
     21       4.1688      1.00000
     22       4.1771      1.00000
     23       5.5576      0.00000
     24       6.4070      0.00000
     25       6.8385      0.00000
     26       7.2076      0.00000

[...]

 k-point   203 :       0.1111   -0.4444    0.4000
  band No.  band energies     occupation
      1     -38.3858      1.00000
      2     -18.5695      1.00000
      3     -18.5366      1.00000
      4     -18.5021      1.00000
      5      -7.0772      1.00000
      6      -6.6206      1.00000
      7      -3.5594      1.00000
      8      -3.4628      1.00000
      9      -3.3982      1.00000
     10      -3.3876      1.00000
     11      -3.3086      1.00000
     12      -3.2537      1.00000
     13      -3.2211      1.00000
     14      -3.0894      1.00000
     15      -3.0065      1.00000
     16      -2.8390      1.00000
     17      -1.2600      1.00000
     18      -0.6436      1.00000
     19       1.1505      1.00000
     20       1.2907      1.00000
     21       2.4036      1.00000
     22       2.6405      1.00000
     23       6.1225      0.00000
     24       6.8513      0.00000
     25       7.3915      0.00000
     26       7.7078      0.00000
 Fermi energy:         4.4257501901

 spin component 2

[...]

 k-point   203 :       0.1111   -0.4444    0.4000
  band No.  band energies     occupation
      1     -38.3857      1.00000
      2     -18.5695      1.00000
      3     -18.5365      1.00000
      4     -18.5021      1.00000
      5      -7.0773      1.00000
      6      -6.6207      1.00000
      7      -3.5593      1.00000
      8      -3.4627      1.00000
      9      -3.3981      1.00000
     10      -3.3876      1.00000
     11      -3.3085      1.00000
     12      -3.2536      1.00000
     13      -3.2210      1.00000
     14      -3.0894      1.00000
     15      -3.0064      1.00000
     16      -2.8390      1.00000
     17      -1.2600      1.00000
     18      -0.6436      1.00000
     19       1.1505      1.00000
     20       1.2906      1.00000
     21       2.4035      1.00000
     22       2.6405      1.00000
     23       6.1225      0.00000
     24       6.8513      0.00000
     25       7.3915      0.00000
     26       7.7078      0.00000

 soft charge-density along one line, spin component            1
         0         1         2         3         4         5         6         7         8         9
 total charge-density along one line

 soft charge-density along one line, spin component            2
         0         1         2         3         4         5         6         7         8         9
 total charge-density along one line

------------------------ aborting loop because EDIFF is reached ----------------------------------------

 total charge

# of ion       s       p       d       tot
    1        2.028   5.855   0.253   8.136
    2        0.539   0.512   9.780  10.830
    3        0.539   0.512   9.780  10.830
    4        1.000   1.565   0.000   2.565
    5        1.000   1.565   0.000   2.565
tot          5.107  10.008  19.813  34.928

 magnetization (x)

[...]

  FORCE on cell =-STRESS in cart. coord.  units (eV):
  Direction    XX          YY          ZZ          XY          YZ          ZX
  Alpha Z   200.67494   200.67494   200.67494
  Ewald    -994.10340  -997.20890 -1115.81278    -0.87534     0.18064    -0.10153
  Hartree   560.21932   558.86865   434.40913    -0.38051     0.16665    -0.09465
  E(xc)    -240.42924  -240.43105  -240.53142    -0.00075     0.00158    -0.00106
  Local      -2.39769     1.93665   244.36233     1.22116    -0.36732     0.20883
  n-local    11.40798    11.33035    11.02367    -0.02204    -0.02039     0.01151
  augment   100.88344   100.91748   100.71388     0.01073     0.01337    -0.00848
  Kinetic   363.83927   363.98295   365.16352     0.04138     0.02066    -0.01236
  Fock        0.00000     0.00000     0.00000     0.00000     0.00000     0.00000
  Total       0.09462     0.07107     0.00327    -0.00537    -0.00482     0.00226
  in kB       1.60481     1.20539     0.05541    -0.09100    -0.08178     0.03840

 VOLUME and BASIS-vectors are now :
  energy-cutoff  :      520.00
  volume of cell :       94.47
      direct lattice vectors                 reciprocal lattice vectors
     4.005197642 -0.000212520  0.000031215     0.249683220  0.144186399 -0.000002511
    -2.002782849  3.468158389 -0.000001936     0.000015300  0.288346301 -0.000001132
     0.000052989  0.000026694  6.801033585    -0.000001146 -0.000000580  0.147036474

  length of vectors
     4.005197648  4.004904712  6.801033585     0.288325212  0.288346301  0.147036474

 FORCES acting on ions
    electron-ion (+dipol)            ewald-force                    non-local-force                 convergence-correction
   -.139E+00 0.245E+00 0.161E-02   0.130E+00 -.229E+00 -.172E-02   0.164E-01 -.281E-01 -.433E-04   -.142E-04 0.170E-04 -.442E-05
   0.814E-01 -.157E+00 -.170E+03   -.851E-01 0.164E+00 0.172E+03   0.480E-02 -.636E-02 -.223E+01   -.843E-06 -.154E-05 -.295E-02
   -.561E+00 0.966E+00 0.170E+03   0.557E+00 -.958E+00 -.172E+03   0.193E-01 -.347E-01 0.223E+01   0.123E-04 -.806E-05 0.305E-02
   0.604E+00 -.104E+01 0.130E+03   -.589E+00 0.101E+01 -.133E+03   -.471E-01 0.825E-01 0.302E+01   0.161E-05 -.157E-05 0.129E-02
   0.982E-02 -.709E-02 -.130E+03   -.127E-01 0.120E-01 0.133E+03   0.436E-02 -.775E-02 -.302E+01   -.134E-05 0.234E-05 -.130E-02
   -.340E-02 0.557E-02 0.528E-03   -.193E-15 0.359E-15 0.284E-13   -.215E-02 0.564E-02 -.123E-02   -.249E-05 0.820E-05 0.885E-04

 POSITION                                       TOTAL-FORCE (eV/Angst)
      2.00247      3.46797      6.80106         0.008029     -0.014528     -0.000037
     -0.00011      2.31204      4.30687         0.002107     -0.002151      0.020896
      2.00257      1.15593      2.49420         0.022443     -0.039543     -0.020186
      0.00490      2.30339      1.80034        -0.035394      0.061690     -0.030564
      2.00257      1.15593      5.00072         0.002815     -0.005468      0.029890
    total drift:                               -0.005552      0.011217     -0.000609

  FREE ENERGIE OF THE ION-ELECTRON SYSTEM (eV)
  free  energy   TOTEN  =       -61.42580149 eV

  energy  without entropy=      -61.42580149  energy(sigma->0) =      -61.42580149

 total charge

[...]

 magnetization (x)

# of ion       s       p       d       tot
    1       -0.000   0.000   0.000   0.000
    2        0.000   0.000   0.000   0.000
    3        0.000   0.000   0.000   0.000
    4       -0.000  -0.000   0.000  -0.000
    5       -0.000  -0.000   0.000  -0.000
tot         -0.000  -0.000   0.000  -0.000