 vasp.6.1.2 22Jul20 (build Apr 14 2021 21:39:43) complex

 executed on             LinuxIFC date 2021.08.21  13:18:36

 INCAR:
 POTCAR:    PAW_PBE Sr_sv 07Sep2000
 POTCAR:    PAW_PBE Zn 06Sep2000
 POTCAR:    PAW_PBE P 06Sep2000
 POTCAR:    PAW_PBE Sr_sv 07Sep2000
   VRHFIN =Sr: 4s4p5s

   TITEL  = PAW_PBE Sr_sv 07Sep2000
   POMASS =   87.620; ZVAL   =   10.000    mass and valenz
   ENMAX  =  229.353; ENMIN  =  172.014 eV

   TITEL  = PAW_PBE Zn 06Sep2000
   POMASS =   65.390; ZVAL   =   12.000    mass and valenz
   ENMAX  =  276.723; ENMIN  =  207.542 eV

   TITEL  = PAW_PBE P 06Sep2000
   POMASS =   30.974; ZVAL   =    5.000    mass and valenz
   ENMAX  =  255.040; ENMIN  =  191.280 eV

  PAW_PBE Sr_sv 07Sep2000               :
  PAW_PBE Zn 06Sep2000                  :
  PAW_PBE P 06Sep2000                   :

 POSCAR: generated by phonopy
  positions in direct lattice

 METAGGA = SCAN     LMAXTAU =  6    LMIXTAU =  F

 ion  position               nearest neighbor table
   1  1.000  1.000  1.000-   5 3.06   4 3.07   4 3.07   4 3.07   5 3.07   5 3.07   2 3.52   3 3.52
                             2 3.52   3 3.52   2 3.52   3 3.52
   2  0.333  0.667  0.630-   5 2.43   5 2.44   5 2.45   4 2.51   3 2.99   3 2.99   3 2.99   1 3.52
                             1 3.52   1 3.52
   3  0.667  0.333  0.370-   4 2.44   4 2.44   4 2.44   5 2.51   2 2.99   2 2.99   2 2.99   1 3.52
                             1 3.52   1 3.52
   4  0.333  0.667  0.277-   3 2.44   3 2.44   3 2.44   2 2.51   1 3.07   1 3.07   1 3.07
   5  0.667  0.336  0.723-   2 2.43   2 2.44   2 2.45   3 2.51   1 3.06   1 3.07   1 3.07

IMPORTANT INFORMATION: All symmetrisations will be switched off!
NOSYMM: (Re-)initialisation of all symmetry stuff for point group C_1.

                                     Primitive cell

  volume of cell :     102.0060

  direct lattice vectors                    reciprocal lattice vectors
     4.072553951  0.000228161  0.000040058     0.245538222  0.141755654 -0.000004231
    -2.036079385  3.526739830  0.000025643    -0.000015885  0.283538822 -0.000003625
     0.000069940  0.000090809  7.101849559    -0.000001385 -0.000001823  0.140808390

  length of vectors
     4.072553957  4.072285979  7.101849560     0.283520165  0.283538822  0.140808390

  position of ions in fractional coordinates (direct lattice)
     0.999999970  0.999999979  0.999999476
     0.333337674  0.666669942  0.630468528
     0.666662349  0.333330056  0.369532614
     0.333330969  0.666665379  0.277054775
     0.666668978  0.335790269  0.722944578

  ion indices of the primitive-cell ions
   primitive index   ion index
                 1           1
                 2           2
                 3           3
                 4           4
                 5           5

 KPOINTS: Kpoints

Automatic generation of k-mesh.
 generate k-points for:    9    9    5
Space group operators:
 irot       det(A)        alpha          n_x          n_y          n_z        tau_x        tau_y        tau_z
    1     1.000000     0.000000     1.000000     0.000000     0.000000     0.000000     0.000000     0.000000

 Subroutine IBZKPT returns following result:

 Found    203 irreducible k-points:

 Following reciprocal coordinates:
            Coordinates               Weight
  0.000000  0.000000  0.000000      1.000000
  0.111111 -0.000000  0.000000      2.000000
  0.222222 -0.000000  0.000000      2.000000
  0.333333  0.000000  0.000000      2.000000
  0.444444 -0.000000  0.000000      2.000000
 -0.000000  0.111111 -0.000000      2.000000
  0.111111  0.111111 -0.000000      2.000000
  0.222222  0.111111 -0.000000      2.000000
  0.333333  0.111111  0.000000      2.000000
  0.444444  0.111111  0.000000      2.000000
 -0.444444  0.111111  0.000000      2.000000
 -0.333333  0.111111  0.000000      2.000000
 -0.222222  0.111111  0.000000      2.000000
 -0.111111  0.111111 -0.000000      2.000000
 -0.000000  0.222222  0.000000      2.000000
  0.111111  0.222222  0.000000      2.000000
  0.222222  0.222222 -0.000000      2.000000
  0.333333  0.222222 -0.000000      2.000000
  0.444444  0.222222 -0.000000      2.000000
 -0.444444  0.222222  0.000000      2.000000
 -0.333333  0.222222  0.000000      2.000000
 -0.222222  0.222222  0.000000      2.000000
 -0.111111  0.222222  0.000000      2.000000
 -0.000000  0.333333  0.000000      2.000000
  0.111111  0.333333  0.000000      2.000000
  0.222222  0.333333  0.000000      2.000000
  0.333333  0.333333  0.000000      2.000000
  0.444444  0.333333  0.000000      2.000000
 -0.444444  0.333333 -0.000000      2.000000
 -0.333333  0.333333  0.000000      2.000000
 -0.222222  0.333333  0.000000      2.000000
 -0.111111  0.333333  0.000000      2.000000
 -0.000000  0.444444 -0.000000      2.000000
  0.111111  0.444444 -0.000000      2.000000
  0.222222  0.444444  0.000000      2.000000
  0.333333  0.444444  0.000000      2.000000
  0.444444  0.444444  0.000000      2.000000
 -0.444444  0.444444 -0.000000      2.000000
 -0.333333  0.444444 -0.000000      2.000000
 -0.222222  0.444444  0.000000      2.000000
 -0.111111  0.444444 -0.000000      2.000000
  0.000000  0.000000  0.200000      2.000000
  0.111111  0.000000  0.200000      2.000000
  0.222222 -0.000000  0.200000      2.000000
  0.333333 -0.000000  0.200000      2.000000
  0.444444 -0.000000  0.200000      2.000000
 -0.444444  0.000000  0.200000      2.000000
 -0.333333 -0.000000  0.200000      2.000000
 -0.222222  0.000000  0.200000      2.000000
 -0.111111  0.000000  0.200000      2.000000
 -0.000000  0.111111  0.200000      2.000000
  0.111111  0.111111  0.200000      2.000000
  0.222222  0.111111  0.200000      2.000000
  0.333333  0.111111  0.200000      2.000000
  0.444444  0.111111  0.200000      2.000000
 -0.444444  0.111111  0.200000      2.000000
 -0.333333  0.111111  0.200000      2.000000
 -0.222222  0.111111  0.200000      2.000000
 -0.111111  0.111111  0.200000      2.000000
 -0.000000  0.222222  0.200000      2.000000
[...]
  0.333333 -0.222222  0.400000      2.000000
  0.444444 -0.222222  0.400000      2.000000
 -0.444444 -0.222222  0.400000      2.000000
 -0.333333 -0.222222  0.400000      2.000000
 -0.222222 -0.222222  0.400000      2.000000
 -0.111111 -0.222222  0.400000      2.000000
  0.000000 -0.111111  0.400000      2.000000
  0.111111 -0.111111  0.400000      2.000000
  0.222222 -0.111111  0.400000      2.000000
  0.333333 -0.111111  0.400000      2.000000
  0.444444 -0.111111  0.400000      2.000000
 -0.444444 -0.111111  0.400000      2.000000
 -0.333333 -0.111111  0.400000      2.000000
 -0.222222 -0.111111  0.400000      2.000000
 -0.111111 -0.111111  0.400000      2.000000

 Following cartesian coordinates:
            Coordinates               Weight
  0.000000  0.000000  0.000000      1.000000
  0.027282  0.015751 -0.000000      2.000000
  0.054564  0.031501 -0.000001      2.000000
  0.081846  0.047252 -0.000001      2.000000
  0.109128  0.063003 -0.000002      2.000000
 -0.000002  0.031504 -0.000000      2.000000
  0.027280  0.047255 -0.000001      2.000000
  0.054562  0.063006 -0.000001      2.000000
  0.081844  0.078756 -0.000002      2.000000
  0.109126  0.094507 -0.000002      2.000000
 -0.109130 -0.031498  0.000001      2.000000
 -0.081848 -0.015748  0.000001      2.000000
 -0.054566  0.000003  0.000001      2.000000
 -0.027284  0.015754  0.000000      2.000000
 -0.000004  0.063009 -0.000001      2.000000
  0.027278  0.078759 -0.000001      2.000000
  0.054561  0.094510 -0.000002      2.000000
  0.081843  0.110261 -0.000002      2.000000
  0.109125  0.126011 -0.000003      2.000000
 -0.109132  0.000006  0.000001      2.000000
 -0.081850  0.015757  0.000001      2.000000
 -0.054568  0.031507  0.000000      2.000000
 -0.027286  0.047258 -0.000000      2.000000
 -0.000005  0.094513 -0.000001      2.000000
  0.027277  0.110264 -0.000002      2.000000
  0.054559  0.126014 -0.000002      2.000000
  0.081841  0.141765 -0.000003      2.000000
  0.109123  0.157515 -0.000003      2.000000
 -0.109133  0.031510  0.000001      2.000000
 -0.081851  0.047261  0.000000      2.000000
 -0.054569  0.063012 -0.000000      2.000000
 -0.027287  0.078762 -0.000001      2.000000
 -0.000007  0.126017 -0.000002      2.000000
  0.027275  0.141768 -0.000002      2.000000
  0.054557  0.157519 -0.000003      2.000000
  0.081839  0.173269 -0.000003      2.000000
  0.109121  0.189020 -0.000003      2.000000
 -0.109135  0.063015  0.000000      2.000000
 -0.081853  0.078765 -0.000000      2.000000
 -0.054571  0.094516 -0.000001      2.000000
 -0.027289  0.110267 -0.000001      2.000000
 -0.000000 -0.000000  0.028162      2.000000
  0.027282  0.015750  0.028161      2.000000
  0.054564  0.031501  0.028161      2.000000
  0.081846  0.047252  0.028160      2.000000
  0.109128  0.063002  0.028160      2.000000
 -0.109128 -0.063003  0.028164      2.000000
 -0.081846 -0.047252  0.028163      2.000000
 -0.054564 -0.031502  0.028163      2.000000
 -0.027282 -0.015751  0.028162      2.000000
 -0.000002  0.031504  0.028161      2.000000
  0.027280  0.047255  0.028161      2.000000
  0.054562  0.063005  0.028160      2.000000
  0.081844  0.078756  0.028160      2.000000
  0.109126  0.094506  0.028159      2.000000
 -0.109130 -0.031499  0.028163      2.000000
 -0.081848 -0.015748  0.028163      2.000000
 -0.054566  0.000003  0.028162      2.000000
 -0.027284  0.015753  0.028162      2.000000
 -0.000004  0.063008  0.028161      2.000000
[...]
  0.081849 -0.015757  0.056323      2.000000
  0.109131 -0.000007  0.056322      2.000000
 -0.109125 -0.126012  0.056326      2.000000
 -0.081843 -0.110261  0.056326      2.000000
 -0.054561 -0.094511  0.056325      2.000000
 -0.027279 -0.078760  0.056325      2.000000
  0.000001 -0.031505  0.056324      2.000000
  0.027283 -0.015754  0.056323      2.000000
  0.054565 -0.000004  0.056323      2.000000
  0.081847  0.015747  0.056322      2.000000
  0.109129  0.031497  0.056322      2.000000
 -0.109127 -0.094508  0.056326      2.000000
 -0.081845 -0.078757  0.056325      2.000000
 -0.054563 -0.063006  0.056325      2.000000
 -0.027281 -0.047256  0.056324      2.000000

 SYSTEM =  unknown system
 POSCAR =  generated by phonopy

 Startparameter for this run:
   NWRITE =      2    write-flag & timer
   PREC   = accura    normal or accurate (medium, high low for compatibility)
   ISTART =      0    job   : 0-new  1-cont  2-samecut
   ICHARG =      2    charge: 1-file 2-atom 10-const
   ISPIN  =      2    spin polarized calculation?
   LNONCOLLINEAR =      F non collinear calculations
   LSORBIT =      F    spin-orbit coupling
   INIWAV =      1    electr: 0-lowe 1-rand  2-diag
   LASPH  =      T    aspherical Exc in radial PAW
   METAGGA=      F    non-selfconsistent MetaGGA calc.

 Electronic Relaxation 1
   ENCUT  =  520.0 eV  38.22 Ry    6.18 a.u.   7.57  7.57 13.20*2*pi/ulx,y,z
   ENINI  =  520.0     initial cutoff
   ENAUG  =  575.9 eV  augmentation charge cutoff
   NELM   =    200;   NELMIN=  6; NELMDL= -5     # of ELM steps
   EDIFF  = 0.1E-05   stopping-criterion for ELM
   LREAL  =      F    real-space projection
   NLSPLINE    = F    spline interpolate recip. space projectors
   LCOMPAT=      F    compatible to vasp.4.4
[...]
  -0.44444444 -0.22222222  0.40000000       0.005
  -0.33333333 -0.22222222  0.40000000       0.005
  -0.22222222 -0.22222222  0.40000000       0.005
  -0.11111111 -0.22222222  0.40000000       0.005
   0.00000000 -0.11111111  0.40000000       0.005
   0.11111111 -0.11111111  0.40000000       0.005
   0.22222222 -0.11111111  0.40000000       0.005
   0.33333333 -0.11111111  0.40000000       0.005
   0.44444444 -0.11111111  0.40000000       0.005
  -0.44444444 -0.11111111  0.40000000       0.005
  -0.33333333 -0.11111111  0.40000000       0.005
  -0.22222222 -0.11111111  0.40000000       0.005
  -0.11111111 -0.11111111  0.40000000       0.005

 position of ions in fractional coordinates (direct lattice)
   0.99999997  0.99999998  0.99999948
   0.33333767  0.66666994  0.63046853
   0.66666235  0.33333006  0.36953261
   0.33333097  0.66666538  0.27705477
   0.66666898  0.33579027  0.72294458

 position of ions in cartesian coordinates  (Angst):
   2.03654443  3.52705873  7.10191154
   0.00018683  2.35130474  4.47752308
   2.03635778  1.17575405  2.62440029
   0.00014410  2.35125656  1.96763178
   2.03140030  1.18446267  5.13427895

 k-point   1 :   0.0000 0.0000 0.0000  plane waves:    2755
 k-point   2 :   0.1111-0.0000 0.0000  plane waves:    2769
 k-point   3 :   0.2222-0.0000 0.0000  plane waves:    2757
 k-point   4 :   0.3333 0.0000 0.0000  plane waves:    2753
 k-point   5 :   0.4444-0.0000 0.0000  plane waves:    2732
 k-point   6 :  -0.0000 0.1111-0.0000  plane waves:    2769
 k-point   7 :   0.1111 0.1111-0.0000  plane waves:    2767
 k-point   8 :   0.2222 0.1111-0.0000  plane waves:    2749
 k-point   9 :   0.3333 0.1111 0.0000  plane waves:    2739
 k-point  10 :   0.4444 0.1111 0.0000  plane waves:    2742
 k-point  11 :  -0.4444 0.1111 0.0000  plane waves:    2739
 k-point  12 :  -0.3333 0.1111 0.0000  plane waves:    2749
 k-point  13 :  -0.2222 0.1111 0.0000  plane waves:    2767
 k-point  14 :  -0.1111 0.1111-0.0000  plane waves:    2769
 k-point  15 :  -0.0000 0.2222 0.0000  plane waves:    2757
 k-point  16 :   0.1111 0.2222 0.0000  plane waves:    2749
 k-point  17 :   0.2222 0.2222-0.0000  plane waves:    2736
 k-point  18 :   0.3333 0.2222-0.0000  plane waves:    2734
 k-point  19 :   0.4444 0.2222-0.0000  plane waves:    2734
 k-point  20 :  -0.4444 0.2222 0.0000  plane waves:    2736
 k-point  21 :  -0.3333 0.2222 0.0000  plane waves:    2749
 k-point  22 :  -0.2222 0.2222 0.0000  plane waves:    2757
 k-point  23 :  -0.1111 0.2222 0.0000  plane waves:    2767
 k-point  24 :  -0.0000 0.3333 0.0000  plane waves:    2753
 k-point  25 :   0.1111 0.3333 0.0000  plane waves:    2739
 k-point  26 :   0.2222 0.3333 0.0000  plane waves:    2732
 k-point  27 :   0.3333 0.3333 0.0000  plane waves:    2748
 k-point  28 :   0.4444 0.3333 0.0000  plane waves:    2732
 k-point  29 :  -0.4444 0.3333-0.0000  plane waves:    2739
 k-point  30 :  -0.3333 0.3333 0.0000  plane waves:    2753
 k-point  31 :  -0.2222 0.3333 0.0000  plane waves:    2747
 k-point  32 :  -0.1111 0.3333 0.0000  plane waves:    2749
 k-point  33 :  -0.0000 0.4444-0.0000  plane waves:    2732
 k-point  34 :   0.1111 0.4444-0.0000  plane waves:    2742
 k-point  35 :   0.2222 0.4444 0.0000  plane waves:    2734
 k-point  36 :   0.3333 0.4444 0.0000  plane waves:    2734
 k-point  37 :   0.4444 0.4444 0.0000  plane waves:    2742
 k-point  38 :  -0.4444 0.4444-0.0000  plane waves:    2732
 k-point  39 :  -0.3333 0.4444-0.0000  plane waves:    2739
 k-point  40 :  -0.2222 0.4444 0.0000  plane waves:    2736
 k-point  41 :  -0.1111 0.4444-0.0000  plane waves:    2739
 k-point  42 :   0.0000 0.0000 0.2000  plane waves:    2737
 k-point  43 :   0.1111 0.0000 0.2000  plane waves:    2754
 k-point  44 :   0.2222-0.0000 0.2000  plane waves:    2765
 k-point  45 :   0.3333-0.0000 0.2000  plane waves:    2751
 k-point  46 :   0.4444-0.0000 0.2000  plane waves:    2731
 k-point  47 :  -0.4444 0.0000 0.2000  plane waves:    2731
 k-point  48 :  -0.3333-0.0000 0.2000  plane waves:    2751
 k-point  49 :  -0.2222 0.0000 0.2000  plane waves:    2765
 k-point  50 :  -0.1111 0.0000 0.2000  plane waves:    2754
 k-point  51 :  -0.0000 0.1111 0.2000  plane waves:    2754
 k-point  52 :   0.1111 0.1111 0.2000  plane waves:    2754
 k-point  53 :   0.2222 0.1111 0.2000  plane waves:    2751
 k-point  54 :   0.3333 0.1111 0.2000  plane waves:    2738
 k-point  55 :   0.4444 0.1111 0.2000  plane waves:    2736
 k-point  56 :  -0.4444 0.1111 0.2000  plane waves:    2738
 k-point  57 :  -0.3333 0.1111 0.2000  plane waves:    2751
 k-point  58 :  -0.2222 0.1111 0.2000  plane waves:    2754
 k-point  59 :  -0.1111 0.1111 0.2000  plane waves:    2754
 k-point  60 :  -0.0000 0.2222 0.2000  plane waves:    2765
[...]
 k-point 189 :   0.3333-0.2222 0.4000  plane waves:    2752
 k-point 190 :   0.4444-0.2222 0.4000  plane waves:    2749
 k-point 191 :  -0.4444-0.2222 0.4000  plane waves:    2727
 k-point 192 :  -0.3333-0.2222 0.4000  plane waves:    2727
 k-point 193 :  -0.2222-0.2222 0.4000  plane waves:    2749
 k-point 194 :  -0.1111-0.2222 0.4000  plane waves:    2752
 k-point 195 :   0.0000-0.1111 0.4000  plane waves:    2763
 k-point 196 :   0.1111-0.1111 0.4000  plane waves:    2763
 k-point 197 :   0.2222-0.1111 0.4000  plane waves:    2757
 k-point 198 :   0.3333-0.1111 0.4000  plane waves:    2752
 k-point 199 :   0.4444-0.1111 0.4000  plane waves:    2745
 k-point 200 :  -0.4444-0.1111 0.4000  plane waves:    2740
 k-point 201 :  -0.3333-0.1111 0.4000  plane waves:    2745
 k-point 202 :  -0.2222-0.1111 0.4000  plane waves:    2752
 k-point 203 :  -0.1111-0.1111 0.4000  plane waves:    2757

 maximum and minimum number of plane-waves per node :       701      667

 maximum number of plane-waves:      2769
 maximum index in each direction:
   IXMAX=    8   IYMAX=    8   IZMAX=   13
   IXMIN=   -8   IYMIN=   -8   IZMIN=  -13

 parallel 3D FFT for wavefunctions:
    minimum data exchange during FFTs selected (reduces bandwidth)
 parallel 3D FFT for charge:
    minimum data exchange during FFTs selected (reduces bandwidth)

 Broyden mixing: mesh for mixing (old mesh)
   NGX = 15   NGY = 15   NGZ = 27
  (NGX  = 60   NGY  = 60   NGZ  =108)
  gives a total of   6075 points

 initial charge density was supplied:
 charge density of overlapping atoms calculated
 number of electron      44.0000000 magnetization       0.3000000
 keeping initial charge density in first step

 Maximum index for augmentation-charges         1007 (set IRDMAX)

 First call to EWALD:  gamma=   0.379
 Maximum number of real-space cells 3x 3x 2
 Maximum number of reciprocal cells 2x 2x 4

--------------------------------------- Iteration      1(   1)  ---------------------------------------

 eigenvalue-minimisations  : 25984
 total energy-change (2. order) : 0.1562162E+03  (-0.2212217E+04)
 number of electron      44.0000000 magnetization       0.3000000
 augmentation part       44.0000000 magnetization       0.3000000

 Free energy of the ion-electron system (eV)
  alpha Z        PSCENC =       211.95167909
  Ewald energy   TEWEN  =     -2995.07069237
  -Hartree energ DENC   =     -1570.22897583
  -exchange      EXHF   =         0.00000000
  -V(xc)+E(xc)   XCENC  =       191.76556300
  PAW double counting   =      3782.33805445    -4171.12343067
  entropy T*S    EENTRO =        -0.00167054
  eigenvalues    EBANDS =        13.80770838
  atomic energy  EATOM  =      4692.77795860
  Solvation  Ediel_sol  =         0.00000000
  free energy    TOTEN  =       156.21619411 eV

  energy without entropy =      156.21786465  energy(sigma->0) =      156.21702938

[...]

 eigenvalue-minimisations  : 30608
 total energy-change (2. order) :-0.2278389E+03  (-0.2232685E+03)
 number of electron      44.0000000 magnetization       0.3000000
 augmentation part       44.0000000 magnetization       0.3000000

[...]

 Broyden mixing:
  rms(total) = 0.19422E+01    rms(broyden)= 0.19422E+01
  rms(prec ) = 0.21255E+01
  weight for this iteration     100.00

[...]

 eigenvalues of (default mixing * dielectric matrix)
  average eigenvalue GAMMA=   1.3966
  1.3966

[...]

 eigenvalue-minimisations  : 19200
 total energy-change (2. order) : 0.1119711E-05  (-0.1540511E-07)
 number of electron      44.0000024 magnetization       0.0000097
 augmentation part       15.6490939 magnetization       0.0000069

 Broyden mixing:
  rms(total) = 0.15187E-03    rms(broyden)= 0.15187E-03
  rms(prec ) = 0.15913E-03
  weight for this iteration     100.00

 eigenvalues of (default mixing * dielectric matrix)
  average eigenvalue GAMMA=   1.3675
  2.7415  2.5596  2.5596  1.4810  1.0392  1.0392  0.9377  0.8173  0.6578  0.6047
  0.6047

[...]

--------------------------------------- Iteration      1(  17)  ---------------------------------------

 eigenvalue-minimisations  : 15808
 total energy-change (2. order) :-0.5774436E-06  (-0.2926207E-08)
 number of electron      44.0000024 magnetization       0.0000097
 augmentation part       15.6490939 magnetization       0.0000069

 Free energy of the ion-electron system (eV)
  alpha Z        PSCENC =       211.95167909
  Ewald energy   TEWEN  =     -2995.07069237
  -Hartree energ DENC   =     -1542.13614327
  -exchange      EXHF   =         0.00000000
  -V(xc)+E(xc)   XCENC  =       194.87911188
  PAW double counting   =      5724.11471679    -6121.86877084
  entropy T*S    EENTRO =        -0.00000000
  eigenvalues    EBANDS =      -238.67639737
  atomic energy  EATOM  =      4692.77795860
  Solvation  Ediel_sol  =         0.00000000
  free energy    TOTEN  =       -74.02853747 eV

  energy without entropy =      -74.02853747  energy(sigma->0) =      -74.02853747

 average (electrostatic) potential at core
  the test charge radii are     1.1929  0.9521  0.9587
  (the norm of the test charge is              1.0000)
       1 -41.8831       2 -41.1150       3 -41.1148       4 -87.0191       5 -87.0190

 E-fermi :   3.9974     XC(G=0): -10.5906     alpha+bet : -9.8567

 spin component 1

 k-point     1 :       0.0000    0.0000    0.0000
  band No.  band energies     occupation
      1     -32.7207      1.00000
      2     -14.2067      1.00000
      3     -13.9965      1.00000
      4     -13.9965      1.00000
      5      -8.3932      1.00000
      6      -6.9998      1.00000
      7      -3.8476      1.00000
      8      -3.8455      1.00000
      9      -3.7719      1.00000
     10      -3.7716      1.00000
     11      -3.5331      1.00000
     12      -3.5300      1.00000
     13      -3.4678      1.00000
     14      -3.4266      1.00000
     15      -3.2840      1.00000
     16      -3.2838      1.00000
     17      -1.4534      1.00000
     18       2.4303      1.00000
     19       2.4464      1.00000
     20       3.5800      1.00000
     21       3.7290      1.00000
     22       3.7387      1.00000
     23       4.9551      0.00000
     24       5.6289      0.00000
     25       6.2621      0.00000
     26       7.1336      0.00000
     27       7.1479      0.00000
     28       7.9353      0.00000
     29       7.9378      0.00000
     30       8.5826      0.00000
     31       8.5925      0.00000
     32      10.9249      0.00000

[...]

 spin component 2

[...]

 k-point   203 :      -0.1111   -0.1111    0.4000
  band No.  band energies     occupation
      1     -32.7141      1.00000
      2     -14.1760      1.00000
      3     -14.1014      1.00000
      4     -14.0219      1.00000
      5      -7.8757      1.00000
      6      -7.1401      1.00000
      7      -3.8515      1.00000
      8      -3.8085      1.00000
      9      -3.7716      1.00000
     10      -3.7137      1.00000
     11      -3.6462      1.00000
     12      -3.5433      1.00000
     13      -3.4375      1.00000
     14      -3.4107      1.00000
     15      -3.3390      1.00000
     16      -3.2878      1.00000
     17      -0.4174      1.00000
     18       0.6561      1.00000
     19       1.7463      1.00000
     20       2.0718      1.00000
     21       2.3907      1.00000
     22       2.8749      1.00000
     23       6.0897      0.00000
     24       6.6513      0.00000
     25       7.2840      0.00000
     26       7.4403      0.00000
     27       7.9942      0.00000
     28       8.2387      0.00000
     29       8.6085      0.00000
     30       9.1882      0.00000
     31       9.8652      0.00000
     32      10.2625      0.00000

 soft charge-density along one line, spin component           1
         0         1         2         3         4         5         6         7         8         9
 total charge-density along one line

 soft charge-density along one line, spin component           2
         0         1         2         3         4         5         6         7         8         9
 total charge-density along one line

------------------------ aborting loop because EDIFF is reached ----------------------------------------

 total charge

# of ion       s       p       d       tot
    1        2.011   5.823   0.227   8.060
    2        0.535   0.490   9.776  10.801
    3        0.535   0.490   9.776  10.801
    4        1.003   1.548   0.000   2.551
    5        1.003   1.548   0.000   2.551
tot          5.086   9.899  19.778  34.763

 magnetization (x)

[...]

  FORCE on cell =-STRESS in cart. coord.  units (eV):
  Direction    XX          YY          ZZ          XY          YZ          ZX
  Alpha Z   211.95168   211.95168   211.95168
  Ewald    -935.13992  -938.52784 -1121.40465    -1.03704     0.17853    -0.10383
  Hartree   582.93733   581.39235   377.80537    -0.48068     0.16370    -0.11007
  E(xc)    -232.09442  -232.09783  -232.20423    -0.00117     0.00138    -0.00066
  Local     -80.59582   -75.77272   309.27156     1.48464    -0.35348     0.22063
  n-local    -1.98831    -2.06906    -1.73135    -0.02431    -0.02076     0.01328
  augment    76.77319    76.80312    76.89050     0.01094     0.00958    -0.00590
  Kinetic   378.02151   378.16623   379.39915     0.03847     0.02217    -0.01353
  Fock        0.00000     0.00000     0.00000     0.00000     0.00000     0.00000
  Total      -0.13476    -0.15407    -0.02197    -0.00915     0.00112    -0.00008
  in kB      -2.11656    -2.41993    -0.34501    -0.14372     0.01756    -0.00131

 VOLUME and BASIS-vectors are now :
  energy-cutoff  :      520.00
  volume of cell :      102.01
      direct lattice vectors                 reciprocal lattice vectors
     4.072553951  0.000228161  0.000040058     0.245538222  0.141755654 -0.000004231
    -2.036079385  3.526739830  0.000025643    -0.000015885  0.283538822 -0.000003625
     0.000069940  0.000090809  7.101849559    -0.000001385 -0.000001823  0.140808390

  length of vectors
     4.072553957  4.072285979  7.101849560     0.283520165  0.283538822  0.140808390

 FORCES acting on ions
    electron-ion (+dipol)            ewald-force                    non-local-force                 convergence-correction
   0.107E+00 -.188E+00 -.434E-02   -.101E+00 0.178E+00 0.440E-02   -.135E-01 0.233E-01 0.170E-03   0.192E-05 -.232E-05 0.112E-05
   0.645E+00 -.100E+01 -.195E+03   -.635E+00 0.989E+00 0.197E+03   -.259E-01 0.401E-01 -.218E+01   0.101E-04 -.881E-05 0.591E-03
   -.173E+00 0.207E+00 0.195E+03   0.173E+00 -.211E+00 -.197E+03   0.556E-04 0.354E-02 0.218E+01   -.358E-05 0.668E-06 -.604E-03
   0.338E-01 -.161E-01 0.144E+03   -.309E-01 0.112E-01 -.148E+03   -.454E-02 0.751E-02 0.294E+01   -.258E-06 0.741E-06 -.221E-03
   -.598E+00 0.977E+00 -.144E+03   0.594E+00 -.967E+00 0.148E+03   0.355E-01 -.625E-01 -.294E+01   -.369E-05 0.189E-05 0.221E-03
   0.815E-02 -.131E-01 -.727E-03   -.333E-14 0.103E-13 -.284E-13   -.840E-02 0.120E-01 0.190E-02   0.452E-05 -.783E-05 -.109E-04

 POSITION                                       TOTAL-FORCE (eV/Angst)
      2.03654      3.52706      7.10191        -0.007560      0.013621      0.000001
      0.00019      2.35130      4.47752        -0.021880      0.037035      0.007877
      2.03636      1.17575      2.62440         0.000559     -0.000546     -0.008866
      0.00014      2.35126      1.96763        -0.001800      0.003089     -0.020331
      2.03140      1.18446      5.13428         0.030680     -0.053198      0.021319
    total drift:                               -0.000247     -0.001095      0.001161

  FREE ENERGIE OF THE ION-ELECTRON SYSTEM (eV)
  free  energy   TOTEN  =       -74.02853747 eV

  energy  without entropy=      -74.02853747  energy(sigma->0) =      -74.02853747

 total charge

[...]

 magnetization (x)

# of ion       s       p       d       tot
    1       -0.000   0.000   0.000   0.000
    2       -0.000  -0.000  -0.000  -0.000
    3       -0.000  -0.000  -0.000  -0.000
    4        0.000   0.000   0.000   0.000
    5        0.000   0.000   0.000   0.000
tot          0.000   0.000  -0.000   0.000